818
16	16
   CSTRESS_1    CSTRESS_2    CSTRESS_3    CSTRESS_4    CSTRESS_5    CSTRESS_6    CSTRESS_7    CSTRESS_8    CSTRESS_9   CSTRESS_10   CSTRESS_11   CSTRESS_12   CSTRESS_13   CSTRESS_14   CSTRESS_15   CSTRESS_16 
  117.481064   120.084061   122.387344   124.422691   119.433487   121.785698   123.842407   125.652435   122.672310   124.570694   125.992638   127.018944   124.006927   125.487404   126.541954   126.962524
    0.000000     0.000000     0.000000     0.000000     0.000000     0.000000     0.000000     0.000000     0.000000     0.000000     0.000000     0.000000     0.000000     0.000000     0.000000     0.000000
    0.000000     0.000000     0.000000     0.000000     0.000000     0.000000     0.000000     0.000000     0.000000     0.000000     0.000000     0.000000     0.000000     0.000000     0.000000     0.000000
    3.328094     1.328798     0.000000     0.000000     1.531725     0.000000     0.000000     0.000000     0.000000     0.000000     0.000000     0.000000     0.000000     0.000000     0.000000     0.000000
   30.284315    17.999094     9.298944     7.782002    19.218845     9.420212     7.907261     6.234962     8.157996     6.544718     4.438736     2.075708     6.680122     4.625263     2.268234     1.247126
   77.829338    75.234756    70.283775    61.232475    75.272697    70.897293    61.893032    51.807285    63.205952    53.541878    40.670700    26.085281    54.279545    41.760242    27.242464    20.544809
  105.505280   106.956207   107.644775   107.340294   106.469543   107.310562   107.038200   106.255539   106.424721   105.846581   103.804520   101.037666   105.579628   103.703827   100.973160    97.229660
    0.000000     0.000000     0.000000     0.000000     0.000000     0.000000     0.000000     0.000000     0.000000     0.000000     0.000000     0.000000     0.000000     0.000000     0.000000     0.000000
    4.985985     3.242988     1.121709     0.074525     3.425342     1.356764     0.127560     0.000000     0.233075     0.000000     0.000000     0.000000     0.000000     0.000000     0.000000     0.000000
   40.938778    30.389145    17.399881    10.529786    31.450926    18.822306    10.891137     8.927015    11.609262     9.157803     7.643679     5.673200     9.264477     7.771842     5.837681     3.678442
   83.834465    82.359039    79.943604    75.939499    82.282150    80.034676    76.123672    68.952423    76.479759    70.121826    61.107960    49.146538    70.646896    61.788868    50.081326    36.875618
  109.493370   111.477638   113.119637   114.083199   110.925110   112.631248   113.651306   113.851616   112.776253   113.185524   112.774773   111.075363   112.822830   112.485458   110.906487   108.623802
    0.000000     0.000000     0.000000     0.000000     0.000000     0.000000     0.000000     0.000000     0.000000     0.000000     0.000000     0.000000     0.000000     0.000000     0.000000     0.000000
   83.896339    83.005043    81.475395    79.167076    82.891983    81.470131    79.199043    76.223907    79.249847    76.490746    72.590584    67.708427    76.578773    72.795448    67.979332    62.131123
   75.355896    73.493958    70.302032    65.822792    73.514458    70.538269    66.105469    60.803055    66.657806    61.650620    54.799229    46.962532    62.000355    55.342949    47.549397    37.294353
   56.088963    50.965210    42.471771    29.760796    51.391563    43.564022    30.912603    17.827620    33.207378    19.659517    13.226417     7.153119    20.916159    13.709610     7.654396     4.746176
   24.416782    10.254940     5.464220     3.451869    11.696886     5.649447     3.640562     1.594754     4.019459     1.879143     0.973843     0.154101     2.080752     1.040761     0.222189     0.000000
    2.826885     0.578977     0.000000     0.000000     0.808861     0.000000     0.000000     0.000000     0.000000     0.000000     0.000000     0.000000     0.000000     0.000000     0.000000     0.000000
    0.000000     0.000000     0.000000     0.000000     0.000000     0.000000     0.000000     0.000000     0.000000     0.000000     0.000000     0.000000     0.000000     0.000000     0.000000     0.000000
   79.672318    78.387253    76.334328    72.942581    78.334892    76.421936    73.112617    68.767006    73.438187    69.344124    64.174942    57.407825    69.593475    64.526878    57.891579    50.306351
   62.747421    58.773170    53.454659    45.024414    59.084278    53.969929    45.803524    34.149246    47.349232    36.417625    22.851397    16.042128    37.483681    24.100836    16.471367    10.828573
   31.874851    19.927441     8.435549     5.825817    21.249552     9.005789     5.960830     4.108936     6.231031     4.485140     2.336293     1.361908     4.664045     2.538089     1.421912     0.662886
    3.917616     2.005513     0.214486     0.000000     2.221265     0.295075     0.000000     0.000000     0.000000     0.000000     0.000000     0.000000     0.000000     0.000000     0.000000     0.000000
    0.000000     0.000000     0.000000     0.000000     0.000000     0.000000     0.000000     0.000000     0.000000     0.000000     0.000000     0.000000     0.000000     0.000000     0.000000     0.000000
  121.702446   125.202866   128.605881   131.954239   124.462471   127.873253   131.237762   134.291550   129.787994   132.938263   135.752029   138.275009   132.246536   135.093643   137.646729   139.997116
    0.000000     0.000000     0.000000     0.000000     0.000000     0.000000     0.000000     0.000000     0.000000     0.000000     0.000000     0.000000     0.000000     0.000000     0.000000     0.000000
    0.160831     0.000000     0.000000     0.000000     0.000000     0.000000     0.000000     0.000000     0.000000     0.000000     0.000000     0.000000     0.000000     0.000000     0.000000     0.000000
    7.166060     4.703130     2.855382     0.839031     4.871956     3.040602     1.056895     0.000000     1.453436     0.037768     0.000000     0.000000     0.092698     0.000000     0.000000     0.000000
   48.750687    39.654953    28.459919    16.140020    40.612812    29.542667    17.454721    10.473514    19.821871    10.870282     9.301964     7.737805    11.241435     9.418372     7.861818     5.984110
   87.773682    86.782364    85.201286    83.128181    86.663101    85.131134    83.171875    78.909851    83.129837    79.699440    71.846313    62.590439    79.863441    72.428093    63.240318    51.965027
  111.775703   114.304085   116.704071   118.952477   113.701492   116.117172   118.392403   119.900818   117.247101   119.012932   119.660583   119.796471   118.519150   119.268486   119.439621   118.712372
    0.256448     0.000000     0.000000     0.000000     0.000000     0.000000     0.000000     0.000000     0.000000     0.000000     0.000000     0.000000     0.000000     0.000000     0.000000     0.000000
    8.494859     5.649750     3.933183     2.087333     5.817151     4.107750     2.265656     0.362223     2.621344     0.504639     0.000000     0.000000     0.723163     0.000000     0.000000     0.000000
   53.585594    45.679928    35.373093    24.220760    46.612034    36.370678    25.263952    13.574738    27.332209    14.483673    10.746194     9.327459    15.792998    10.843215     9.437180     7.921088
   90.553764    90.200836    89.168816    87.922173    90.019745    89.019608    87.794075    85.378174    87.524124    85.532631    81.100044    72.808784    85.524971    81.544518    73.351051    64.425415
  114.941483   117.746277   120.383286   122.981331   117.104286   119.752571   122.364380   124.551651   121.115303   123.483276   124.892014   125.361877   122.898544   124.439911   124.958672   125.195625
   89.861633    90.069847    89.824158    89.382141    89.842270    89.631882    89.214684    88.244644    88.856606    88.093666    86.275383    83.566444    87.965904    86.276543    83.616325    80.379929
    0.000000     0.000000     0.000000     0.000000     0.000000     0.000000     0.000000     0.000000     0.000000     0.000000     0.000000     0.000000     0.000000     0.000000     0.000000     0.000000
   85.473946    85.178696    84.382011    83.397430    85.021202    84.261620    83.300919    81.475983    83.085754    81.602509    78.396187    73.943726    81.576820    78.569038    74.180984    69.337318
   70.440163    67.866318    64.325104    60.270252    68.090279    64.564941    60.540543    54.885204    61.063129    56.164299    46.953186    34.161003    56.565277    47.935856    35.251389    22.004812
   46.947712    37.529568    26.173613    12.855182    38.893799    27.405136    14.138927     7.303400    16.685959     7.642532     6.053742     4.006547     8.160192     6.223754     4.188319     2.081286
   14.264237     4.758764     2.928944     0.792949     4.990518     3.133551     1.000562     0.000000     1.415374     0.017658     0.000000     0.000000     0.092115     0.000000     0.000000     0.000000
    1.354539     0.000000     0.000000     0.000000     0.000000     0.000000     0.000000     0.000000     0.000000     0.000000     0.000000     0.000000     0.000000     0.000000     0.000000     0.000000
   83.146576    82.556152    81.506813    80.155090    82.436562    81.426689    80.131645    77.571297    80.021912    77.844002    74.047508    69.232269    77.913185    74.277031    69.516609    63.678425
   67.434563    64.222908    60.032013    55.290119    64.464134    60.338802    55.709541    47.682785    56.425480    49.485310    37.688637    24.084707    50.188530    38.787956    25.267696    17.254307
   44.735104    34.174526    21.078415     8.391757    35.333477    22.374537     8.910115     6.176617    11.128169     6.491231     4.597688     2.438817     6.617908     4.782400     2.630883     1.434602
   11.007323     4.281035     2.178394     0.169960     4.476790     2.390614     0.243996     0.000000     0.595131     0.000000     0.000000     0.000000     0.000000     0.000000     0.000000     0.000000
    0.853387     0.000000     0.000000     0.000000     0.000000     0.000000     0.000000     0.000000     0.000000     0.000000     0.000000     0.000000     0.000000     0.000000     0.000000     0.000000
  123.173210   127.148384   130.839035   134.630615   126.342964   130.052719   133.845627   137.657150   132.267349   136.110031   139.620514   142.645035   135.319443   138.896515   141.955399   144.911407
    0.000000     0.000000     0.000000     0.000000     0.000000     0.000000     0.000000     0.000000     0.000000     0.000000     0.000000     0.000000     0.000000     0.000000     0.000000     0.000000
    0.655705     0.000000     0.000000     0.000000     0.022451     0.000000     0.000000     0.000000     0.000000     0.000000     0.000000     0.000000     0.000000     0.000000     0.000000     0.000000
   11.115897     6.218870     4.539380     2.782958     6.483640     4.704945     2.950977     1.041723     3.287161     1.450088     0.037063     0.000000     1.627272     0.092421     0.000000     0.000000
   55.694660    49.524040    39.467743    28.897615    50.238285    40.400967    29.866152    18.312777    31.793198    20.738808    11.857468    10.301979    21.774523    12.226604    10.407015     8.951900
   93.355209    93.402557    92.454628    91.397659    93.167992    92.280678    91.237831    89.817841    90.909203    89.712654    86.599945    78.855797    89.574539    86.727524    79.356140    70.875359
  115.070610   118.138893   120.945877   123.814857   117.463051   120.286690   123.158745   125.973373   121.838501   124.713051   126.911163   127.831108   124.057365   126.375435   127.384087   128.100220
    0.911147     0.000000     0.000000     0.000000     0.053790     0.000000     0.000000     0.000000     0.000000     0.000000     0.000000     0.000000     0.000000     0.000000     0.000000     0.000000
   12.751467     6.501629     4.859934     3.145442     6.873206     5.020938     3.308564     1.470239     3.635256     1.851132     0.230050     0.000000     2.022024     0.280804     0.000000     0.000000
   56.217487    50.934715    41.129986    30.840778    51.176643    42.031174    31.774481    20.694077    33.634201    22.934883    12.908330    10.466452    23.926104    13.243468    10.565543     9.174918
   91.867142    92.232765    91.430199    90.539284    91.902855    91.239235    90.360161    89.233521    89.994888    89.021736    86.401993    80.109070    88.856796    86.483864    80.569183    72.494972
  116.296906   119.468964   122.338318   125.278862   118.772469   121.663849   124.606400   127.545670   123.254402   126.231285   128.650818   129.815857   125.555237   128.085678   129.352127   130.148178
   92.231148    93.090752    93.185539    93.231476    92.780609    92.933052    92.991730    92.900330    92.492584    92.483910    91.833229    89.846428    92.246178    91.706650    89.826416    87.456787
    0.000000     0.000000     0.000000     0.000000     0.000000     0.000000     0.000000     0.000000     0.000000     0.000000     0.000000     0.000000     0.000000     0.000000     0.000000     0.000000
   87.314285    87.566299    87.056107    86.475700    87.340401    86.887825    86.319748    85.562271    85.991768    85.343262    83.582359    79.930183    85.192513    83.617317    80.099861    75.910042
   72.436172    71.168671    67.814461    64.261780    70.930794    67.997658    64.464867    60.555939    64.859612    61.141605    55.005390    44.093781    61.368484    55.656796    45.088177    32.520729
   50.468922    45.556461    33.788673    21.449829    44.662968    34.914490    22.612040    10.264473    24.928425    12.102954     7.301036     5.542813    13.331854     7.421239     5.713569     3.695022
   22.202728     6.048736     4.136611     2.142951     7.578496     4.327765     2.335186     0.354517     2.720948     0.645503     0.000000     0.000000     0.846053     0.000000     0.000000     0.000000
    2.616844     0.000000     0.000000     0.000000     0.283963     0.000000     0.000000     0.000000     0.000000     0.000000     0.000000     0.000000     0.000000     0.000000     0.000000     0.000000
   87.030556    87.162071    86.570465    85.902939    86.950668    86.411461    85.756882    84.868439    85.447899    84.693100    82.694695    78.824623    84.554718    82.750992    79.008904    74.677338
   72.894722    71.151840    67.639229    63.915516    71.242470    67.838036    64.135605    59.963074    64.562981    60.636940    53.819641    41.855824    60.885822    54.511990    42.879295    30.002811
   51.944706    44.966099    33.057007    20.560173    45.832561    34.196392    21.737957     9.493893    24.083599    11.046734     7.116229     5.190098    12.298494     7.242364     5.364485     3.302328
   23.153646     5.946451     4.015247     2.000284     6.796308     4.208046     2.194405     0.238987     2.583674     0.478930     0.000000     0.000000     0.682416     0.000000     0.000000     0.000000
    2.739626     0.000000     0.000000     0.000000     0.118713     0.000000     0.000000     0.000000     0.000000     0.000000     0.000000     0.000000     0.000000     0.000000     0.000000     0.000000
  123.355072   127.300957   130.964355   134.725632   126.502403   130.179657   133.942719   137.705811   132.368896   136.170868   139.626526   142.612762   135.387985   138.905060   141.925720   144.844620
    0.000000     0.000000     0.000000     0.000000     0.000000     0.000000     0.000000     0.000000     0.000000     0.000000     0.000000     0.000000     0.000000     0.000000     0.000000     0.000000
    0.855283     0.000000     0.000000     0.000000     0.054677     0.000000     0.000000     0.000000     0.000000     0.000000     0.000000     0.000000     0.000000     0.000000     0.000000     0.000000
   12.523526     6.580369     4.924303     3.194540     6.959207     5.086808     3.359288     1.503601     3.689277     1.888374     0.251577     0.000000     2.061474     0.303272     0.000000     0.000000
   56.846378    51.447773    41.558563    31.179142    51.701160    42.467892    32.121864    20.937737    33.999821    23.200802    13.079741    10.522686    24.204838    13.419957    10.621744     9.225983
   92.188164    92.546562    91.740547    90.844627    92.215599    91.546310    90.662552    89.523140    90.291496    89.308334    86.670647    80.437607    89.142982    86.749756    80.897095    72.790001
  116.288261   119.455032   122.316483   125.247375   118.760559   121.640892   124.574081   127.491333   123.220619   126.181129   128.572556   129.731812   125.507965   128.006851   129.268112   130.045074
    0.000000     0.000000     0.000000     0.000000     0.000000     0.000000     0.000000     0.000000     0.000000     0.000000     0.000000     0.000000     0.000000     0.000000     0.000000     0.000000
    0.613391     0.000000     0.000000     0.000000     0.000000     0.000000     0.000000     0.000000     0.000000     0.000000     0.000000     0.000000     0.000000     0.000000     0.000000     0.000000
   10.748073     6.090847     4.427668     2.687606     6.238814     4.592058     2.854683     0.936406     3.189167     1.362854     0.038578     0.000000     1.544019     0.092249     0.000000     0.000000
   54.637043    48.419117    38.465126    27.997635    49.225224    39.391750    28.961025    17.347889    30.878956    19.890894    11.522729     9.988619    20.953156    11.881482    10.091279     8.666088
   91.484550    91.540230    90.643013    89.636047    91.321884    90.464668    89.472565    88.016975    89.137474    87.967979    84.788330    77.210945    87.844627    84.913925    77.698830    69.381630
  116.392174   119.457031   122.258324   125.117775   118.778854   121.592499   124.455772   127.231812   123.124092   125.974030   128.101990   128.969574   125.320976   127.562881   128.521423   129.175125
   92.583672    93.422592    93.506874    93.539619    93.116501    93.250618    93.296600    93.175171    92.791260    92.759384    92.065269    90.059891    92.523964    91.936417    90.037331    87.637680
    0.000000     0.000000     0.000000     0.000000     0.000000     0.000000     0.000000     0.000000     0.000000     0.000000     0.000000     0.000000     0.000000     0.000000     0.000000     0.000000
   86.987083    87.115540    86.536392    85.879173    86.905968    86.371384    85.727676    84.807716    85.408302    84.649445    82.584938    78.732117    84.515785    82.637482    78.910927    74.586174
   71.964897    70.229141    66.786705    63.133705    70.353043    66.978951    63.347832    59.167660    63.763962    59.889370    52.937862    41.082260    60.148998    53.627663    42.099079    29.319380
   50.993961    43.868992    31.987696    19.515894    44.863937    33.131210    20.699329     9.119344    23.057283    10.124275     6.971049     5.063067    11.296435     7.096578     5.236239     3.190491
   22.475807     5.786267     3.858253     1.845987     5.960632     4.051601     2.040898     0.197767     2.431917     0.343684     0.000000     0.000000     0.533116     0.000000     0.000000     0.000000
    2.647135     0.000000     0.000000     0.000000     0.000000     0.000000     0.000000     0.000000     0.000000     0.000000     0.000000     0.000000     0.000000     0.000000     0.000000     0.000000
   87.610855    87.845688    87.321602    86.724800    87.622009    87.150536    86.566475    85.778290    86.234001    85.560898    83.755623    80.085266    85.412155    83.789368    80.253517    76.031715
   72.794640    71.497864    68.112679    64.525696    71.262520    68.295235    64.728706    60.773441    65.123489    61.363403    55.170116    44.276573    61.593880    55.822392    45.272034    32.656010
   50.898243    45.825703    33.993279    21.584551    44.941196    35.126984    22.755722    10.304235    25.090405    12.183871     7.324722     5.569990    13.426888     7.445135     5.740993     3.715057
   22.644926     6.085988     4.163725     2.159164     7.644769     4.356258     2.352925     0.355920     2.741815     0.653744     0.000000     0.000000     0.856600     0.000000     0.000000     0.000000
    2.681170     0.000000     0.000000     0.000000     0.288637     0.000000     0.000000     0.000000     0.000000     0.000000     0.000000     0.000000     0.000000     0.000000     0.000000     0.000000
  121.977829   125.474861   128.895859   132.244995   124.733315   128.155319   131.525223   134.536469   130.071655   133.186005   135.979767   138.505417   132.499573   135.319550   137.874542   140.223602
    0.000000     0.000000     0.000000     0.000000     0.000000     0.000000     0.000000     0.000000     0.000000     0.000000     0.000000     0.000000     0.000000     0.000000     0.000000     0.000000
    0.222066     0.000000     0.000000     0.000000     0.000000     0.000000     0.000000     0.000000     0.000000     0.000000     0.000000     0.000000     0.000000     0.000000     0.000000     0.000000
    8.140227     5.466445     3.749000     1.901277     5.636505     3.924519     2.081202     0.318535     2.433345     0.421527     0.000000     0.000000     0.523761     0.000000     0.000000     0.000000
   53.004364    44.904774    34.585663    23.413052    45.854362    35.589741    24.467121    13.581087    26.515982    14.261513    10.953889     9.513721    14.892790    11.052123     9.624562     8.071601
   92.279434    91.878700    90.824516    89.541710    91.696747    90.667488    89.409218    86.804344    89.124733    86.985855    82.204567    73.792076    87.022400    82.655502    74.340080    65.196045
  114.387627   117.179115   119.821922   122.413803   116.539703   119.186928   121.795692   123.903709   120.547005   122.853493   124.202080   124.700348   122.296829   123.748543   124.293747   124.520782
    0.143540     0.000000     0.000000     0.000000     0.000000     0.000000     0.000000     0.000000     0.000000     0.000000     0.000000     0.000000     0.000000     0.000000     0.000000     0.000000
    7.038661     4.651344     2.794454     0.752670     4.821393     2.978981     0.971588     0.000000     1.381057     0.011102     0.000000     0.000000     0.066787     0.000000     0.000000     0.000000
   48.451088    39.201305    27.958637    15.486442    40.166256    29.035894    16.807371    10.299514    19.255554    10.562490     9.131590     7.578278    10.938644     9.246683     7.700814     5.835387
   87.283401    86.305908    84.778809    82.704498    86.180603    84.693321    82.741096    78.287254    82.717422    79.209114    71.230713    62.023842    79.376816    71.805000    62.665394    51.446873
  114.155426   116.723236   119.177643   121.452141   116.106438   118.569534   120.877563   122.302940   119.708160   121.429642   121.977417   122.037750   120.934471   121.581062   121.677483   120.870537
   90.715675    90.907990    90.673370    90.224144    90.677971    90.471771    90.052147    89.002136    89.687111    88.869461    86.967018    84.224754    88.751495    86.967384    84.272743    80.988052
    0.000000     0.000000     0.000000     0.000000     0.000000     0.000000     0.000000     0.000000     0.000000     0.000000     0.000000     0.000000     0.000000     0.000000     0.000000     0.000000
   84.137901    83.554893    82.536316    81.182648    83.427048    82.440987    81.149986    78.486763    81.034706    78.777504    74.897095    70.055008    78.853813    75.121834    70.333778    64.467300
   67.778984    64.552750    60.403191    55.650341    64.786987    60.694672    56.061726    47.777245    56.791828    49.684002    37.730709    24.122175    50.396816    38.825275    25.299192    17.248207
   44.507896    33.786083    20.667738     8.255195    34.952431    21.958210     8.774853     6.169248    10.678336     6.500930     4.583245     2.424427     6.629073     4.767250     2.615604     1.413832
   10.424264     4.209994     2.102935     0.141035     4.406975     2.314372     0.215422     0.000000     0.512914     0.000000     0.000000     0.000000     0.000000     0.000000     0.000000     0.000000
    0.761748     0.000000     0.000000     0.000000     0.000000     0.000000     0.000000     0.000000     0.000000     0.000000     0.000000     0.000000     0.000000     0.000000     0.000000     0.000000
   86.256950    85.930298    85.122719    84.110825    85.774689    84.997398    84.013344    82.040291    83.798782    82.202477    78.875450    74.380905    82.216728    79.051437    74.619553    69.690788
   71.118599    68.424286    64.822876    60.695694    68.657120    65.065331    60.972591    54.949566    61.471210    56.319958    46.776485    33.924026    56.878609    47.770206    35.023289    22.095427
   46.503014    36.820778    25.392628    12.012049    38.204010    26.637926    13.315113     7.301201    15.671705     7.550766     6.013004     3.956961     7.793355     6.184635     4.140011     2.088708
   13.103745     4.625352     2.785542     0.641595     4.859821     2.992061     0.851943     0.000000     1.234573     0.000000     0.000000     0.000000     0.023264     0.000000     0.000000     0.000000
    1.172890     0.000000     0.000000     0.000000     0.000000     0.000000     0.000000     0.000000     0.000000     0.000000     0.000000     0.000000     0.000000     0.000000     0.000000     0.000000
    0.000000     0.000000     0.000000     0.000000     0.000000     0.000000     0.000000     0.000000     0.000000     0.000000     0.000000     0.000000     0.000000     0.000000     0.000000     0.000000
  116.865211   119.415497   121.681091   123.654305   118.774590   121.083176   123.083588   124.826508   121.933571   123.765083   125.128700   126.091309   123.212959   124.632500   125.624054   126.015770
    0.000000     0.000000     0.000000     0.000000     0.000000     0.000000     0.000000     0.000000     0.000000     0.000000     0.000000     0.000000     0.000000     0.000000     0.000000     0.000000
    0.000000     0.000000     0.000000     0.000000     0.000000     0.000000     0.000000     0.000000     0.000000     0.000000     0.000000     0.000000     0.000000     0.000000     0.000000     0.000000
    4.845809     3.081112     0.933329     0.005973     3.266805     1.167964     0.059959     0.000000     0.167481     0.000000     0.000000     0.000000     0.000000     0.000000     0.000000     0.000000
   40.048531    29.359257    16.200171    10.025089    30.443350    17.620726    10.393410     8.746195    11.126373     8.983228     7.452361     5.448444     9.092620     7.582318     5.614998     3.444616
   83.658684    82.125114    79.641571    75.520638    82.055573    79.725647    75.714211    68.069099    76.090950    69.280655    60.159035    47.982353    69.824066    60.852631    48.931934    35.652981
  110.553764   112.533035   114.189522   115.105980   111.979057   113.686523   114.674240   114.774475   113.800720   114.119705   113.667953   111.873344   113.761162   113.380142   111.707603   109.399323
    0.000000     0.000000     0.000000     0.000000     0.000000     0.000000     0.000000     0.000000     0.000000     0.000000     0.000000     0.000000     0.000000     0.000000     0.000000     0.000000
    0.000000     0.000000     0.000000     0.000000     0.000000     0.000000     0.000000     0.000000     0.000000     0.000000     0.000000     0.000000     0.000000     0.000000     0.000000     0.000000
    3.459736     1.485147     0.000000     0.000000     1.683795     0.052328     0.000000     0.000000     0.000000     0.000000     0.000000     0.000000     0.000000     0.000000     0.000000     0.000000
   30.823368    18.693825     9.139170     7.646873    19.887444     9.517638     7.770585     6.136833     8.018344     6.429215     4.366343     2.035886     6.563194     4.550730     2.226364     1.191270
   76.593086    74.043625    69.525330    60.612858    74.086708    69.846909    61.264580    51.404034    62.560703    53.030193    40.413513    26.013544    53.759972    41.490379    27.158556    20.367891
  106.352219   107.782936   108.528351   108.177696   107.298309   108.148308   107.877983   107.074532   107.269928   106.632202   104.583633   101.764824   106.369606   104.485100   101.703522    97.923302
   84.094589    83.171524    81.656258    79.305573    83.062859    81.622932    79.341270    76.299026    79.400475    76.565025    72.638550    67.699913    76.659500    72.847137    67.975372    62.115582
    0.000000     0.000000     0.000000     0.000000     0.000000     0.000000     0.000000     0.000000     0.000000     0.000000     0.000000     0.000000     0.000000     0.000000     0.000000     0.000000
   75.394585    73.547585    70.475525    66.011810    73.568695    70.664207    66.292404    61.015366    66.841362    61.821144    55.035988    47.232246    62.170742    55.576843    47.816849    37.646835
   55.914722    50.879406    42.881500    30.225685    51.299412    43.748882    31.368467    17.898308    33.646030    20.125114    13.326818     7.292291    21.375080    13.806817     7.790760     4.804656
   24.928591    10.887844     5.528015     3.524015    12.306724     5.676972     3.711477     1.600980     4.088015     1.952018     0.984273     0.169997     2.152739     1.050757     0.237706     0.000000
    2.918307     0.688072     0.000000     0.000000     0.914481     0.000000     0.000000     0.000000     0.000000     0.000000     0.000000     0.000000     0.000000     0.000000     0.000000     0.000000
    0.000000     0.000000     0.000000     0.000000     0.000000     0.000000     0.000000     0.000000     0.000000     0.000000     0.000000     0.000000     0.000000     0.000000     0.000000     0.000000
   79.898796    78.561806    76.488625    72.993240    78.516304    76.551514    73.171227    68.686478    73.514053    69.290047    64.039482    57.139526    69.551178    64.400192    57.633018    49.987606
   62.555336    58.495796    53.103729    44.414589    58.820877    53.604347    45.210476    33.174561    46.791756    35.490852    21.827261    15.545115    36.578426    23.092537    15.979805    10.313464
   31.281610    19.198160     8.046317     5.722160    20.541471     8.612782     5.859557     3.947649     6.134867     4.330582     2.168039     1.285014     4.512489     2.371919     1.345615     0.584310
    3.823830     1.891355     0.159350     0.000000     2.110075     0.239564     0.000000     0.000000     0.000000     0.000000     0.000000     0.000000     0.000000     0.000000     0.000000     0.000000
    0.000000     0.000000     0.000000     0.000000     0.000000     0.000000     0.000000     0.000000     0.000000     0.000000     0.000000     0.000000     0.000000     0.000000     0.000000     0.000000
  107.783913   108.904427   109.647728   109.844528   108.357986   109.155640   109.399132   109.013939   108.501289   108.272118   107.314690   104.597549   107.890778   107.053078   104.403374    99.505699
    0.000000     0.000000     0.000000     0.000000     0.000000     0.000000     0.000000     0.000000     0.000000     0.000000     0.000000     0.000000     0.000000     0.000000     0.000000     0.000000
  100.330498   100.372856    99.415382    97.189400    99.987114    99.138771    97.055954    93.945763    96.780441    93.813393    90.108322    85.040886    93.729546    90.156586    85.127243    77.370796
   70.170418    65.281830    56.236393    44.489178    65.543045    56.919582    45.451679    31.827820    47.370388    34.030991    21.075653    17.386196    35.091892    21.311842    17.627581    13.219692
   15.408249     8.829391     7.114660     5.198283     9.221416     7.242751     5.366086     3.163980     5.702546     3.536300     1.463436     0.971883     3.717023     1.499355     1.008023     0.463959
    1.013500     0.036226     0.000000     0.000000     0.092699     0.000000     0.000000     0.000000     0.000000     0.000000     0.000000     0.000000     0.000000     0.000000     0.000000     0.000000
    0.000000     0.000000     0.000000     0.000000     0.000000     0.000000     0.000000     0.000000     0.000000     0.000000     0.000000     0.000000     0.000000     0.000000     0.000000     0.000000
   95.021553    93.980354    91.681999    88.337822    93.704041    91.573181    88.277557    84.037064    88.148071    84.162903    79.012802    71.134178    84.207718    79.216713    71.453430    59.530521
   60.653534    51.601200    39.496010    25.320999    52.269859    40.508419    26.402483    17.995144    28.558878    18.464600    14.648433    10.050478    18.691231    14.921785    10.343567     7.568750
    8.417850     6.480697     4.508771     2.228006     6.605718     4.683407     2.408545     1.115027     2.770685     1.185358     0.678450     0.109824     1.219598     0.716646     0.148613     0.000000
    0.074738     0.000000     0.000000     0.000000     0.000000     0.000000     0.000000     0.000000     0.000000     0.000000     0.000000     0.000000     0.000000     0.000000     0.000000     0.000000
    0.000000     0.000000     0.000000     0.000000     0.000000     0.000000     0.000000     0.000000     0.000000     0.000000     0.000000     0.000000     0.000000     0.000000     0.000000     0.000000
    0.032099     0.040935     0.050377     0.060084     0.036070     0.045369     0.055014     0.064940     0.044743     0.054549     0.064650     0.075184     0.049269     0.059314     0.069834     0.080586
   73.651024    70.821320    66.814407    61.768921    70.861382    66.988037    62.020939    55.976456    62.517597    56.714684    49.700012    40.379948    57.062351    50.217258    40.976528    29.231707
    0.000000     0.000000     0.000000     0.000000     0.000000     0.000000     0.000000     0.000000     0.000000     0.000000     0.000000     0.000000     0.000000     0.000000     0.000000     0.000000
   62.627586    57.700832    51.014812    43.108128    57.997410    51.521645    43.665627    33.688641    44.773243    35.383930    23.822556    19.860729    36.200649    24.417191    20.105665    14.279934
   36.139683    23.169506    13.392288     7.462451    24.348949    13.848630     7.936522     4.288707     8.886787     4.563508     2.782152     2.316533     4.696846     2.872534     2.346415     1.670502
    4.597694     2.549482     1.085169     0.290488     2.741254     1.148611     0.354888     0.000000     0.484545     0.000000     0.000000     0.000000     0.000000     0.000000     0.000000     0.000000
    0.000000     0.000000     0.000000     0.000000     0.000000     0.000000     0.000000     0.000000     0.000000     0.000000     0.000000     0.000000     0.000000     0.000000     0.000000     0.000000
    0.000000     0.000000     0.000000     0.000000     0.000000     0.000000     0.000000     0.000000     0.000000     0.000000     0.000000     0.000000     0.000000     0.000000     0.000000     0.000000
    0.000000     0.000000     0.000000     0.000000     0.000000     0.000000     0.000000     0.000000     0.000000     0.000000     0.000000     0.000000     0.000000     0.000000     0.000000     0.000000
   68.514557    64.467171    59.066517    52.250134    64.669205    59.400032    52.730957    44.810589    53.685265    45.961449    36.892548    24.348722    46.511230    37.752819    25.271967    19.931084
   46.665726    37.381153    23.930477    14.775358    38.240601    25.163881    15.209924     9.460750    16.080719    10.428816     4.925086     3.061510    10.898659     5.062039     3.202171     2.607008
    7.248442     4.747005     2.628990     1.269265     4.893105     2.828858     1.330039     0.563103     1.452369     0.695510     0.000000     0.000000     0.760128     0.000000     0.000000     0.000000
    0.174840     0.000000     0.000000     0.000000     0.000000     0.000000     0.000000     0.000000     0.000000     0.000000     0.000000     0.000000     0.000000     0.000000     0.000000     0.000000
    0.000000     0.000000     0.000000     0.000000     0.000000     0.000000     0.000000     0.000000     0.000000     0.000000     0.000000     0.000000     0.000000     0.000000     0.000000     0.000000
  189.716904   196.963287   204.743713   212.396759   195.420013   203.183182   210.844543   218.451721   207.736328   215.358704   223.029449   230.989532   213.817520   221.470413   229.425537   236.554504
    0.000000     0.000000     0.000000     0.000000     0.000000     0.000000     0.000000     0.000000     0.000000     0.000000     0.000000     0.000000     0.000000     0.000000     0.000000     0.000000
    0.000000     0.000000     0.000000     0.000000     0.000000     0.000000     0.000000     0.000000     0.000000     0.000000     0.000000     0.000000     0.000000     0.000000     0.000000     0.000000
    0.438192     0.000000     0.000000     0.000000     0.000000     0.000000     0.000000     0.000000     0.000000     0.000000     0.000000     0.000000     0.000000     0.000000     0.000000     0.000000
   18.067804    14.328329    12.955111    11.460654    14.373764    13.015778    11.528999     8.650988    11.664967     9.162254     5.185451     0.695689     9.408737     5.476240     1.000481     0.000000
  116.256676   110.043800   102.614120    94.409660   110.093102   102.761650    94.615608    77.901169    95.019897    80.629593    57.174690    30.565992    81.935738    58.764881    32.259995    25.691166
  176.727676   181.225250   185.740189   190.058380   179.973495   184.488602   188.837616   190.825577   186.391174   189.011566   189.290741   189.122360   188.093826   188.424622   188.284637   185.393326
  107.419601   108.547371   109.267853   109.460960   107.999329   108.789474   109.015167   108.619957   108.116478   107.877182   106.899719   104.184517   107.494911   106.660126   103.989258    99.075974
    0.000000     0.000000     0.000000     0.000000     0.000000     0.000000     0.000000     0.000000     0.000000     0.000000     0.000000     0.000000     0.000000     0.000000     0.000000     0.000000
    0.000000     0.000000     0.000000     0.000000     0.000000     0.000000     0.000000     0.000000     0.000000     0.000000     0.000000     0.000000     0.000000     0.000000     0.000000     0.000000
    0.058120     0.000000     0.000000     0.000000     0.000000     0.000000     0.000000     0.000000     0.000000     0.000000     0.000000     0.000000     0.000000     0.000000     0.000000     0.000000
    8.277308     6.421262     4.440035     2.155941     6.546474     4.616280     2.336664     1.101295     2.699163     1.172094     0.661129     0.088411     1.206553     0.699905     0.127456     0.000000
   60.510197    51.359917    39.191158    24.990799    52.030346    40.215439    26.074314    18.009850    28.234695    18.482277    14.630956    10.004580    18.710243    14.914928    10.299211     7.617018
   95.621811    94.562569    92.219780    88.852509    94.285370    92.121475    88.792709    84.513023    88.664017    84.639709    79.420189    71.517426    84.684517    79.670174    71.836601    59.730080
    0.000000     0.000000     0.000000     0.000000     0.000000     0.000000     0.000000     0.000000     0.000000     0.000000     0.000000     0.000000     0.000000     0.000000     0.000000     0.000000
    1.004152     0.033887     0.000000     0.000000     0.090246     0.000000     0.000000     0.000000     0.000000     0.000000     0.000000     0.000000     0.000000     0.000000     0.000000     0.000000
   15.340446     8.808167     7.105202     5.196314     9.198820     7.238165     5.363494     3.170938     5.698663     3.542009     1.459928     0.972613     3.721911     1.495610     1.008392     0.468262
   70.149506    65.295258    56.234974    44.532558    65.551094    56.949638    45.490520    31.924379    47.399902    34.118530    21.108036    17.442139    35.173630    21.342438    17.680807    13.291844
  100.578247   100.640678    99.658859    97.434158   100.247841    99.399307    97.296097    94.191559    97.011223    94.050934    90.345528    85.270370    93.962112    90.393715    85.352768    77.573654
    0.000000     0.000000     0.000000     0.000000     0.000000     0.000000     0.000000     0.000000     0.000000     0.000000     0.000000     0.000000     0.000000     0.000000     0.000000     0.000000
    0.000000     0.000000     0.000000     0.000000     0.000000     0.000000     0.000000     0.000000     0.000000     0.000000     0.000000     0.000000     0.000000     0.000000     0.000000     0.000000
    4.221888     0.257147     0.000000     0.000000     0.685070     0.000000     0.000000     0.000000     0.000000     0.000000     0.000000     0.000000     0.000000     0.000000     0.000000     0.000000
   41.989281    18.254417    15.701251    14.466521    20.759090    15.753082    14.520479    13.178173    14.627343    13.318678    11.537568     7.717371    13.383596    11.789791     7.981007     3.720348
  127.001945   124.826736   119.457352   112.901779   124.584732   119.544930   113.007339   105.789391   113.209198   106.213371    96.313126    73.913933   106.392029    97.645760    75.330826    50.260777
  179.421814   185.505875   190.720474   195.547729   184.128326   189.488449   194.305466   199.080750   191.814270   196.643906   200.811783   201.770554   195.421631   199.889206   200.870972   201.512466
    0.000000     0.000000     0.000000     0.000000     0.000000     0.000000     0.000000     0.000000     0.000000     0.000000     0.000000     0.000000     0.000000     0.000000     0.000000     0.000000
   73.635284    70.796997    66.753014    61.693707    70.834511    66.940674    61.944481    55.874077    62.438576    56.610035    49.562973    40.230701    56.955978    50.102489    40.825596    29.041616
   62.635101    57.676075    50.929359    42.989941    57.972771    51.449665    43.548450    33.474751    44.658054    35.170513    23.798450    19.830442    35.986980    24.181892    20.074955    14.189617
   35.934574    22.905605    13.223954     7.288452    24.083912    13.685121     7.762612     4.256033     8.713036     4.530859     2.782107     2.315829     4.664144     2.836639     2.345675     1.660881
    4.562999     2.505841     1.058883     0.264154     2.697336     1.122787     0.328510     0.000000     0.458075     0.000000     0.000000     0.000000     0.000000     0.000000     0.000000     0.000000
    0.000000     0.000000     0.000000     0.000000     0.000000     0.000000     0.000000     0.000000     0.000000     0.000000     0.000000     0.000000     0.000000     0.000000     0.000000     0.000000
    0.000000     0.000000     0.000000     0.000000     0.000000     0.000000     0.000000     0.000000     0.000000     0.000000     0.000000     0.000000     0.000000     0.000000     0.000000     0.000000
   68.501892    64.467476    59.049088    52.242088    64.664879    59.400494    52.719841    44.812138    53.667885    45.957226    36.910057    24.375835    46.503342    37.776737    25.295784    19.972950
   46.642323    37.381371    23.909597    14.797285    38.236488    25.174833    15.230554     9.497513    16.098656    10.463100     4.931961     3.070417    10.931192     5.068305     3.210562     2.619236
    7.233570     4.746716     2.625732     1.272900     4.892197     2.830453     1.333542     0.568928     1.455596     0.701088     0.000000     0.000000     0.765515     0.000000     0.000000     0.000000
    0.172996     0.000000     0.000000     0.000000     0.000000     0.000000     0.000000     0.000000     0.000000     0.000000     0.000000     0.000000     0.000000     0.000000     0.000000     0.000000
    0.000000     0.000000     0.000000     0.000000     0.000000     0.000000     0.000000     0.000000     0.000000     0.000000     0.000000     0.000000     0.000000     0.000000     0.000000     0.000000
    0.000000     0.000000     0.000000     0.000000     0.000000     0.000000     0.000000     0.000000     0.000000     0.000000     0.000000     0.000000     0.000000     0.000000     0.000000     0.000000
    0.032014     0.039216     0.046635     0.054166     0.035307     0.042703     0.050269     0.057702     0.042251     0.049829     0.057355     0.065395     0.045768     0.053329     0.061434     0.067286
    0.091352     0.111730     0.132618     0.153369     0.101312     0.122385     0.143511     0.192959     0.122636     0.144410     0.166332     0.220681     0.133743     0.156047     0.209052     0.235288
    0.052771     0.064334     0.087979     0.119508     0.058288     0.081006     0.093953     0.127034     0.069927     0.093079     0.126095     0.138121     0.085943     0.118035     0.130647     0.142520
    0.000000     0.000000     0.000000     0.000000     0.000000     0.000000     0.000000     0.000000     0.000000     0.000000     0.000000     0.000000     0.000000     0.000000     0.000000     0.000000
    0.000000     0.000000     0.000000     0.006824     0.000000     0.000000     0.000000     0.006601     0.000000     0.000000     0.000000     0.006067     0.000000     0.000000     0.000000     0.004653
    0.035534     0.045800     0.056717     0.068067     0.039903     0.050614     0.061830     0.073438     0.049287     0.060619     0.072569     0.085001     0.054170     0.065955     0.078313     0.090626
    0.066412     0.107502     0.132449     0.157854     0.074887     0.119341     0.144785     0.170748     0.117863     0.143904     0.170633     0.198015     0.130050     0.156826     0.184452     0.212255
    0.000000     0.000000     0.000000     0.000000     0.000000     0.000000     0.000000     0.000000     0.000000     0.000000     0.000000     0.000000     0.000000     0.000000     0.000000     0.000000
    0.000000     0.000000     0.000000     0.000000     0.000000     0.000000     0.000000     0.000000     0.000000     0.000000     0.000000     0.000000     0.000000     0.000000     0.000000     0.000000
    0.000000     0.000000     0.000000     0.000000     0.000000     0.000000     0.000000     0.000000     0.000000     0.000000     0.000000     0.000000     0.000000     0.000000     0.000000     0.000000
    0.028816     0.039904     0.052250     0.065535     0.032803     0.044610     0.057497     0.071136     0.041771     0.054626     0.068334     0.082910     0.046536     0.059818     0.074038     0.089190
    0.047080     0.065093     0.085031     0.106406     0.054048     0.073296     0.094240     0.116228     0.069988     0.091189     0.113489     0.136966     0.078667     0.100537     0.123723     0.148046
    0.012055     0.016450     0.021323     0.026616     0.013733     0.018405     0.023547     0.029030     0.017529     0.022721     0.028217     0.034003     0.019618     0.024966     0.030633     0.036633
    0.000000     0.000000     0.000000     0.000000     0.000000     0.000000     0.000000     0.000000     0.000000     0.000000     0.000000     0.000000     0.000000     0.000000     0.000000     0.000000
    0.000000     0.020286     0.027738     0.036030     0.000000     0.022777     0.030666     0.039382     0.000000     0.028334     0.037017     0.046255     0.023074     0.031337     0.040225     0.049796
    0.031426     0.046626     0.063687     0.082498     0.036615     0.052754     0.070847     0.090703     0.048254     0.066570     0.086666     0.107781     0.054855     0.074204     0.094781     0.116696
    0.015987     0.023243     0.031317     0.040240     0.018385     0.025999     0.034537     0.043947     0.023597     0.032180     0.041623     0.051477     0.026534     0.035570     0.045122     0.055288
    0.000000     0.000000     0.000000     0.000000     0.000000     0.000000     0.000000     0.000000     0.000000     0.000000     0.000000     0.000000     0.000000     0.000000     0.000000     0.000000
    0.000000     0.000000     0.000000     0.000000     0.000000     0.000000     0.000000     0.000000     0.000000     0.000000     0.000000     0.000000     0.000000     0.000000     0.000000     0.000000
    0.015625     0.022704     0.030583     0.039295     0.017965     0.025396     0.033729     0.042917     0.023054     0.031433     0.040648     0.050275     0.025924     0.034741     0.044074     0.054003
    0.031212     0.046278     0.063190     0.081840     0.036351     0.052346     0.070283     0.089958     0.047870     0.066025     0.085926     0.106897     0.054406     0.073565     0.094001     0.115775
    0.000000     0.013406     0.018226     0.023565     0.000000     0.014990     0.020078     0.025664     0.013435     0.018502     0.024048     0.029903     0.015086     0.020372     0.026020     0.032056
    0.000000     0.000000     0.000000     0.000000     0.000000     0.000000     0.000000     0.000000     0.000000     0.000000     0.000000     0.000000     0.000000     0.000000     0.000000     0.000000
    0.019289     0.026425     0.034370     0.043028     0.022023     0.029631     0.038029     0.047001     0.028242     0.036719     0.045744     0.055326     0.031670     0.040431     0.049804     0.059761
    0.046662     0.064536     0.084335     0.105565     0.053598     0.072709     0.093511     0.115317     0.069480     0.090511     0.112680     0.136096     0.078111     0.099831     0.122956     0.147223
    0.023563     0.032478     0.042357     0.052918     0.026733     0.036198     0.046469     0.057223     0.033821     0.044023     0.054760     0.066088     0.037535     0.047970     0.059057     0.070771
    0.000000     0.000000     0.000000     0.000000     0.000000     0.000000     0.000000     0.000000     0.000000     0.000000     0.000000     0.000000     0.000000     0.000000     0.000000     0.000000
    0.000000     0.000000     0.000000     0.000000     0.000000     0.000000     0.000000     0.000000     0.000000     0.000000     0.000000     0.000000     0.000000     0.000000     0.000000     0.000000
    0.000000     0.000000     0.000000     0.000000     0.000000     0.000000     0.000000     0.000000     0.000000     0.000000     0.000000     0.000000     0.000000     0.000000     0.000000     0.000000
    0.070633     0.090708     0.111879     0.133441     0.079774     0.100795     0.122400     0.144503     0.099637     0.121778     0.144615     0.168015     0.110042     0.132905     0.156509     0.180348
    0.030377     0.039022     0.048163     0.057559     0.034002     0.042982     0.052294     0.061844     0.041692     0.051058     0.060870     0.071001     0.045622     0.055320     0.065409     0.075412
    0.000000     0.000000     0.000000     0.000000     0.000000     0.000000     0.000000     0.000000     0.000000     0.000000     0.000000     0.000000     0.000000     0.000000     0.000000     0.000000
    0.000000     0.000000     0.000000     0.000000     0.000000     0.000000     0.000000     0.000000     0.000000     0.000000     0.000000     0.000000     0.000000     0.000000     0.000000     0.000000
    0.051364     0.062666     0.074324     0.116084     0.056764     0.068436     0.090368     0.123546     0.068213     0.080294     0.122800     0.135080     0.074168     0.114907     0.127723     0.139983
    0.074072     0.110783     0.131446     0.151981     0.100346     0.121163     0.142065     0.183141     0.121130     0.142545     0.163958     0.208917     0.131876     0.153665     0.197762     0.221276
    0.000000     0.000000     0.000000     0.000000     0.000000     0.000000     0.000000     0.000000     0.000000     0.000000     0.000000     0.000000     0.000000     0.000000     0.000000     0.000000
    0.000000     0.000000     0.000000     0.000000     0.000000     0.000000     0.000000     0.000000     0.000000     0.000000     0.000000     0.000000     0.000000     0.000000     0.000000     0.000000
    0.000000     0.000000     0.000000     0.000000     0.000000     0.000000     0.000000     0.000000     0.000000     0.000000     0.000000     0.000000     0.000000     0.000000     0.000000     0.000000
    0.000000     0.000000     0.000000     0.000000     0.000000     0.000000     0.000000     0.000000     0.000000     0.000000     0.000000     0.000000     0.000000     0.000000     0.000000     0.000000
    0.000000     0.000000     0.000000     0.000000     0.000000     0.000000     0.000000     0.000000     0.000000     0.000000     0.000000     0.000000     0.000000     0.000000     0.000000     0.000000
    0.000000     0.000000     0.000000     0.000000     0.000000     0.000000     0.000000     0.000000     0.000000     0.000000     0.000000     0.000000     0.000000     0.000000     0.000000     0.000000
    0.000000     0.000000     0.000000     0.000000     0.000000     0.000000     0.000000     0.000000     0.000000     0.000000     0.000000     0.000000     0.000000     0.000000     0.000000     0.000000
    0.000000     0.000000     0.000000     0.000000     0.000000     0.000000     0.000000     0.000000     0.000000     0.000000     0.000000     0.000000     0.000000     0.000000     0.000000     0.000000
  204.325653   212.970245   221.729935   230.847321   211.337830   220.072144   229.191879   238.625610   225.868011   235.242508   244.821274   254.604141   233.545181   243.125931   252.897278   262.587860
    0.000000     0.000000     0.000000     0.000000     0.000000     0.000000     0.000000     0.000000     0.000000     0.000000     0.000000     0.000000     0.000000     0.000000     0.000000     0.000000
    5.615686     3.333585     0.000000     0.000000     3.554529     0.000000     0.000000     0.000000     0.000000     0.000000     0.000000     0.000000     0.000000     0.000000     0.000000     0.000000
   52.085930    38.616257    18.492296    17.268587    39.842884    18.536842    17.319084    15.980538    17.419909    16.110458    14.645451    12.973080    16.170351    14.724971    13.060823     9.675013
  138.688843   139.074112   136.723724   130.418365   138.485565   136.744965   130.482849   123.483719   130.608566   123.793373   116.057846   107.041489   123.917809   116.306572   107.349884    87.801727
  184.412491   191.362671   198.169815   204.137833   189.950928   196.854919   202.839554   208.828384   200.234039   206.211319   212.374786   218.369568   204.905746   211.070755   217.077682   220.229111
    0.000000     0.000000     0.000000     0.000000     0.000000     0.000000     0.000000     0.000000     0.000000     0.000000     0.000000     0.000000     0.000000     0.000000     0.000000     0.000000
    8.288126     6.418819     4.299909     0.566094     6.598838     4.498440     0.969275     0.000000     1.772252     0.000000     0.000000     0.000000     0.000000     0.000000     0.000000     0.000000
   67.746513    56.971554    44.661682    22.496353    57.930473    45.741089    24.840118    18.421429    29.497076    18.476362    17.487326    16.370171    18.494350    17.528723    16.415493    15.205427
  139.450211   141.240524   142.802231   142.095306   140.574768   142.133591   141.756348   138.401474   141.059113   138.247803   133.387985   127.788231   138.111191   133.400024   127.825722   121.658379
  186.241394   193.562439   201.006836   208.607498   192.135956   199.567261   207.173157   214.063904   204.289902   211.400558   217.801285   224.407303   210.043640   216.490753   223.072693   229.626678
    0.000000     0.000000     0.000000     0.000000     0.000000     0.000000     0.000000     0.000000     0.000000     0.000000     0.000000     0.000000     0.000000     0.000000     0.000000     0.000000
  206.861206   216.371460   226.287354   236.359634   214.660522   224.544373   234.619446   244.644440   231.125824   241.121216   251.658524   262.687286   239.385773   249.833694   260.856567   272.089172
    0.000000     0.000000     0.000000     0.000000     0.000000     0.000000     0.000000     0.000000     0.000000     0.000000     0.000000     0.000000     0.000000     0.000000     0.000000     0.000000
    9.018252     7.276341     5.221303     3.009421     7.450902     5.417840     3.211972     0.000000     3.620385     0.283434     0.000000     0.000000     0.696004     0.000000     0.000000     0.000000
   73.539597    63.544399    51.635426    38.716625    64.457588    52.694817    39.824070    20.570654    42.056255    22.258650    19.620335    18.460894    24.660990    19.655048    18.504534    17.272043
  124.834999   126.753967   128.442749   129.841141   125.972366   127.693008   129.092102   128.134384   127.623756   127.505569   123.796364   119.167717   127.062271   123.592941   119.019768   114.029350
  189.108154   197.082886   205.374466   213.678009   195.582123   203.857895   212.163605   220.225388   209.134735   217.328552   224.826447   232.396378   215.831436   223.384109   230.956863   238.752747
    0.000000     0.000000     0.000000     0.000000     0.000000     0.000000     0.000000     0.000000     0.000000     0.000000     0.000000     0.000000     0.000000     0.000000     0.000000     0.000000
   10.462593     8.941137     7.036839     5.029461     9.099825     7.215304     5.214170     2.748467     5.581567     3.484297     0.000000     0.000000     3.679129     0.000000     0.000000     0.000000
   81.858101    73.304482    62.428493    50.915401    74.104454    63.357433    51.892227    37.595039    53.827637    41.793255    21.013189    20.117060    42.833645    21.014582    20.136629    19.157513
  149.869141   152.734940   155.254181   157.737808   151.914185   154.455780   156.949783   158.934311   155.363571   157.877289   156.665573   152.587769   157.076828   156.401276   152.437561   147.865738
  196.982178   205.331375   213.959549   222.768600   203.755127   212.358475   221.166412   229.995972   217.951782   226.766876   235.583572   243.570770   225.159134   234.037781   242.050980   250.042908
    0.000000     0.000000     0.000000     0.000000     0.000000     0.000000     0.000000     0.000000     0.000000     0.000000     0.000000     0.000000     0.000000     0.000000     0.000000     0.000000
  207.138214   217.027481   227.237350   237.814026   215.253052   225.431595   235.990662   246.843079   232.344955   243.152222   253.993301   265.364441   241.303268   252.166077   263.470490   275.226410
    0.045778     0.000000     0.000000     0.000000     0.000000     0.000000     0.000000     0.000000     0.000000     0.000000     0.000000     0.000000     0.000000     0.000000     0.000000     0.000000
   10.451437     8.856159     7.018549     5.089224     8.997498     7.188191     5.263893     3.197847     5.612183     3.589682     0.279046     0.000000     3.776345     0.696147     0.000000     0.000000
   81.500900    74.079773    63.593666    52.542393    74.774544    64.466125    53.454849    41.555340    55.267845    43.655251    24.144691    21.590717    44.645836    26.559954    21.609426    20.596861
  101.618416   103.652008   105.468170   107.293488   102.967896   104.792427   106.618912   108.336555   105.269371   107.025116   107.459068   104.897995   106.362152   107.051659   104.655769   101.746269
  193.669754   202.130325   210.912308   219.990067   200.544952   209.295944   218.360733   227.604141   215.101227   224.326309   233.492676   241.877045   222.680893   231.883301   240.325287   248.829300
    0.138803     0.000000     0.000000     0.000000     0.000000     0.000000     0.000000     0.000000     0.000000     0.000000     0.000000     0.000000     0.000000     0.000000     0.000000     0.000000
   11.377028     9.450406     7.730931     5.929936     9.564590     7.886518     6.089785     4.182529     6.408991     4.535255     1.739870     0.000000     4.704551     2.124583     0.000000     0.000000
   82.350250    76.222588    66.454269    56.189919    76.756538    67.243301    57.012997    46.106586    58.651405    47.963249    31.649666    20.816465    48.846943    33.859921    20.823456    19.969654
  149.446045   152.622375   155.290344   158.008392   151.772629   154.468491   157.187881   159.901688   155.544159   158.272308   159.727722   157.104660   157.454254   159.253586   156.870224   153.108200
  197.300598   205.888840   214.733139   223.891571   204.262543   213.082458   222.225540   231.639420   218.894653   228.258667   237.664825   246.427261   226.569870   236.000732   244.847290   253.360321
    0.000000     0.000000     0.000000     0.000000     0.000000     0.000000     0.000000     0.000000     0.000000     0.000000     0.000000     0.000000     0.000000     0.000000     0.000000     0.000000
  207.384872   217.233078   227.392532   237.914337   215.468567   225.593140   236.097809   246.869736   232.466171   243.203979   253.961365   265.256226   241.369400   252.141190   263.380249   275.086151
    0.116039     0.000000     0.000000     0.000000     0.000000     0.000000     0.000000     0.000000     0.000000     0.000000     0.000000     0.000000     0.000000     0.000000     0.000000     0.000000
   11.673622     9.833870     8.063684     6.209339     9.951008     8.223315     6.373438     4.407869     6.701153     4.771219     1.903049     0.000000     4.945436     2.295034     0.000000     0.000000
   84.978081    78.587051    68.528023    57.957092    79.135437    69.338173    58.802685    47.559315    60.486103    49.474361    32.737381    20.954367    50.384842    34.988533    20.960691    20.104275
  150.141052   153.345139   156.034897   158.774734   152.486160   155.204376   157.945557   160.672974   156.284576   159.030869   160.488968   157.887299   158.206039   160.008408   157.649796   153.871185
  196.907471   205.504944   214.350906   223.510223   203.881836   212.701340   221.845459   231.246841   218.517242   227.875427   237.272736   246.044250   226.191879   235.608795   244.473633   252.977432
    0.037524     0.000000     0.000000     0.000000     0.000000     0.000000     0.000000     0.000000     0.000000     0.000000     0.000000     0.000000     0.000000     0.000000     0.000000     0.000000
   10.086832     8.588766     6.842648     5.008153     8.732376     7.003994     5.174685     3.205943     5.506977     3.579237     0.290355     0.000000     3.759361     0.694622     0.000000     0.000000
   78.337730    71.196152    61.245430    50.749916    71.909164    62.073116    51.618340    40.287952    53.345249    42.285202    22.885883    20.362518    43.242477    25.227116    20.374641    19.466526
  150.045258   152.914658   155.490356   158.074844   152.090714   154.676819   157.268219   159.679153   155.650040   158.117233   158.463669   154.837234   157.336853   158.053116   154.636810   150.527557
  199.865173   208.393127   217.207748   226.312943   206.774445   215.557144   224.650101   233.884781   221.324570   230.551895   239.670654   247.916107   228.884720   238.033981   246.355423   254.705856
    0.000000     0.000000     0.000000     0.000000     0.000000     0.000000     0.000000     0.000000     0.000000     0.000000     0.000000     0.000000     0.000000     0.000000     0.000000     0.000000
  206.084702   215.593246   225.526382   235.594742   213.888245   223.781082   233.858154   243.858521   230.375656   240.330551   250.919617   261.997528   238.603897   249.096115   260.179535   271.457397
    0.000000     0.000000     0.000000     0.000000     0.000000     0.000000     0.000000     0.000000     0.000000     0.000000     0.000000     0.000000     0.000000     0.000000     0.000000     0.000000
   10.330650     8.790533     6.886235     4.876722     8.950214     7.063432     5.060848     2.417862     5.427618     3.201933     0.000000     0.000000     3.521594     0.000000     0.000000     0.000000
   82.394150    73.742767    62.870781    51.346035    74.542809    63.785477    52.313286    36.925560    54.232861    41.411781    22.205641    21.222956    43.209461    22.208473    21.243467    20.172943
  156.801865   159.734146   162.281326   164.772873   158.874146   161.435776   163.941849   165.596634   162.271439   164.563324   162.900269   158.330719   163.931641   162.640854   158.183609   153.093613
  192.492752   200.766800   209.344360   218.092789   199.217636   207.761993   216.512405   225.270325   213.344742   222.081146   230.833206   238.885574   220.500732   229.300598   237.385254   245.459259
    0.000000     0.000000     0.000000     0.000000     0.000000     0.000000     0.000000     0.000000     0.000000     0.000000     0.000000     0.000000     0.000000     0.000000     0.000000     0.000000
    8.996398     7.226663     5.155142     2.920431     7.402884     5.350849     3.124363     0.000000     3.534837     0.083290     0.000000     0.000000     0.501313     0.000000     0.000000     0.000000
   72.470535    62.314957    50.318748    37.273857    63.240452    51.373615    38.391491    19.629789    40.638653    20.155121    18.736359    17.651432    22.592167    18.767105    17.690853    16.543442
  144.589767   146.681717   148.544724   150.055710   145.956818   147.844742   149.369064   147.888687   148.018219   147.590240   143.211945   137.915588   147.266617   143.136520   137.898376   132.247467
  196.816391   204.974426   213.459061   221.917038   203.417679   211.876480   220.346588   228.405334   217.206161   225.473953   232.856308   240.290756   223.934250   231.383881   238.833237   246.469162
    0.000000     0.000000     0.000000     0.000000     0.000000     0.000000     0.000000     0.000000     0.000000     0.000000     0.000000     0.000000     0.000000     0.000000     0.000000     0.000000
  201.029510   209.522797   218.113846   227.070984   207.927933   216.521515   225.453705   234.765594   222.207672   231.465652   240.895172   250.545914   229.806198   239.235001   248.874268   258.468109
    0.000000     0.000000     0.000000     0.000000     0.000000     0.000000     0.000000     0.000000     0.000000     0.000000     0.000000     0.000000     0.000000     0.000000     0.000000     0.000000
    8.009160     6.103905     3.954690     0.045370     6.289465     4.157514     0.455627     0.000000     1.273565     0.000000     0.000000     0.000000     0.000000     0.000000     0.000000     0.000000
   66.111038    55.124111    42.640385    19.408815    56.114601    43.744144    21.794403    18.317610    26.540081    18.378988    17.352476    16.201225    18.399637    17.395475    16.248688    15.002521
  140.409378   142.230560   143.857742   142.945679   141.546204   143.171051   142.593475   138.869431   141.872864   138.744812   133.684692   127.906937   138.618805   133.701172   127.952606   121.592278
  191.368546   198.859406   206.480392   214.233307   197.389572   205.003830   212.756836   219.684433   209.791718   216.951752   223.474167   230.231140   215.556778   222.123428   228.857513   235.548874
    0.000000     0.000000     0.000000     0.000000     0.000000     0.000000     0.000000     0.000000     0.000000     0.000000     0.000000     0.000000     0.000000     0.000000     0.000000     0.000000
    5.692780     3.502209     0.000000     0.000000     3.712250     0.392293     0.000000     0.000000     0.000000     0.000000     0.000000     0.000000     0.000000     0.000000     0.000000     0.000000
   51.372456    38.439621    17.412027    16.284519    39.608944    19.728277    16.332155    15.098444    16.427450    15.221359    13.878017    12.344715    15.277777    13.951376    12.425708     9.244444
  132.534088   132.903275   131.059341   125.283936   132.361847   130.908371   125.336815   118.914566   125.440346   119.195778   112.132629   103.888702   119.304893   112.350021   104.161980    85.785454
  187.821655   194.672623   201.425812   207.201981   193.263428   200.044632   205.913345   211.684708   203.327972   209.110611   215.029160   220.759659   207.817535   213.738617   219.482727   222.446198
    0.000000     0.000000     0.000000     0.000000     0.000000     0.000000     0.000000     0.000000     0.000000     0.000000     0.000000     0.000000     0.000000     0.000000     0.000000     0.000000
  191.573196   198.786102   206.572159   214.204010   197.237808   204.988403   212.646194   220.218521   209.527008   217.116470   224.742203   232.650360   215.571243   223.185822   231.082794   238.169098
    0.000000     0.000000     0.000000     0.000000     0.000000     0.000000     0.000000     0.000000     0.000000     0.000000     0.000000     0.000000     0.000000     0.000000     0.000000     0.000000
    4.257245     0.274962     0.000000     0.000000     0.703859     0.000000     0.000000     0.000000     0.000000     0.000000     0.000000     0.000000     0.000000     0.000000     0.000000     0.000000
   42.329014    18.479786    15.814015    14.556949    20.991430    15.860185    14.612829    13.244638    14.723588    13.389313    11.565363     7.711410    13.456487    11.819522     7.978005     3.686034
  127.633331   125.385941   119.977859   113.296303   125.152901   120.028030   113.413589   106.049118   113.639221   106.498154    96.350121    73.758980   106.690498    97.694382    75.194038    49.944599
  178.923431   184.985764   190.254883   195.105209   183.618622   188.998535   193.868576   198.665482   191.389053   196.237564   200.415314   201.413879   195.020844   199.496323   200.518585   201.184769
    0.000000     0.000000     0.000000     0.000000     0.000000     0.000000     0.000000     0.000000     0.000000     0.000000     0.000000     0.000000     0.000000     0.000000     0.000000     0.000000
    0.563368     0.000000     0.000000     0.000000     0.000000     0.000000     0.000000     0.000000     0.000000     0.000000     0.000000     0.000000     0.000000     0.000000     0.000000     0.000000
   18.743891    14.298977    12.948168    11.477164    14.343339    13.006729    11.544100     8.754920    11.677231     9.262203     5.319073     0.863807     9.506838     5.605003     1.166070     0.000000
  115.253471   109.196976   101.893951    93.825058   109.242531   102.029732    94.024155    77.849678    94.414902    80.555992    57.306698    30.915743    81.852043    58.869434    32.595310    25.103716
  173.080750   177.505875   181.962555   186.229370   176.283310   180.728516   185.034744   187.112839   182.640686   185.338028   185.645065   185.549271   184.440689   184.800323   184.725922   182.108215
    0.000000     0.000000     0.000000     0.000000     0.000000     0.000000     0.000000     0.000000     0.000000     0.000000     0.000000     0.000000     0.000000     0.000000     0.000000     0.000000
    0.000000     0.000000     0.000000     0.000000     0.000000     0.000000     0.000000     0.000000     0.000000     0.000000     0.000000     0.000000     0.000000     0.000000     0.000000     0.000000
    0.000000     0.000000     0.000000     0.000000     0.000000     0.000000     0.000000     0.000000     0.000000     0.000000     0.000000     0.000000     0.000000     0.000000     0.000000     0.000000
    0.000000     0.000000     0.000000     0.000000     0.000000     0.000000     0.000000     0.000000     0.000000     0.000000     0.000000     0.000000     0.000000     0.000000     0.000000     0.000000
    0.000000     0.000000     0.000000     0.000000     0.000000     0.000000     0.000000     0.000000     0.000000     0.000000     0.000000     0.000000     0.000000     0.000000     0.000000     0.000000
    0.000000     0.000000     0.000000     0.000000     0.000000     0.000000     0.000000     0.000000     0.000000     0.000000     0.000000     0.000000     0.000000     0.000000     0.000000     0.000000
    0.000000     0.000000     0.000000     0.000000     0.000000     0.000000     0.000000     0.000000     0.000000     0.000000     0.000000     0.000000     0.000000     0.000000     0.000000     0.000000
    0.000000     0.000000     0.000000     0.000000     0.000000     0.000000     0.000000     0.000000     0.000000     0.000000     0.000000     0.000000     0.000000     0.000000     0.000000     0.000000
    0.000000     0.000000     0.000000     0.000000     0.000000     0.000000     0.000000     0.000000     0.000000     0.000000     0.000000     0.000000     0.000000     0.000000     0.000000     0.000000
    0.097759     0.131551     0.177225     0.202005     0.107155     0.141165     0.188939     0.210606     0.139014     0.185388     0.205262     0.224112     0.171895     0.192861     0.212832     0.229971
    0.030691     0.034120     0.036531     0.038258     0.030789     0.033447     0.035459     0.030459     0.029733     0.027631     0.017549     0.002596     0.025953     0.017155     0.003489     0.000000
    0.000000     0.000000     0.000000     0.000000     0.000000     0.000000     0.000000     0.000000     0.000000     0.000000     0.000000     0.000000     0.000000     0.000000     0.000000     0.000000
    0.100393     0.164083     0.196341     0.228682     0.146232     0.178109     0.210370     0.236279     0.173335     0.201540     0.224274     0.246458     0.183667     0.207316     0.230078     0.251308
    0.000000     0.000000     0.000000     0.000491     0.000000     0.000000     0.000000     0.000000     0.000000     0.000000     0.000000     0.000000     0.000000     0.000000     0.000000     0.000000
    0.000000     0.007165     0.008885     0.010736     0.006095     0.007741     0.009531     0.011421     0.007206     0.008984     0.010683     0.011903     0.007800     0.009497     0.010752     0.011869
    0.000000     0.011726     0.015243     0.019029     0.000000     0.012454     0.016055     0.019866     0.010463     0.013911     0.017439     0.020219     0.011114     0.014478     0.017314     0.019828
    0.000000     0.000000     0.000000     0.000000     0.000000     0.000000     0.000000     0.000000     0.000000     0.000000     0.000000     0.000000     0.000000     0.000000     0.000000     0.000000
    0.000000     0.000000     0.000000     0.000000     0.000000     0.000000     0.000000     0.000000     0.000000     0.000000     0.000000     0.000000     0.000000     0.000000     0.000000     0.000000
    0.000000     0.000000     0.000000     0.000000     0.000000     0.000000     0.000000     0.000000     0.000000     0.000000     0.000000     0.000000     0.000000     0.000000     0.000000     0.000000
    0.040547     0.047850     0.052070     0.055227     0.043484     0.048282     0.051694     0.074056     0.044395     0.047814     0.067926     0.057937     0.044374     0.046249     0.055664     0.041652
    0.012787     0.017238     0.021900     0.026947     0.013957     0.018364     0.023177     0.028380     0.016048     0.020758     0.025703     0.029799     0.017157     0.021886     0.026018     0.029490
    0.012153     0.016186     0.020507     0.024975     0.013137     0.017252     0.021565     0.025644     0.015050     0.019069     0.022122     0.024684     0.015837     0.018999     0.021666     0.024124
    0.000000     0.000000     0.000000     0.000000     0.000000     0.000000     0.000000     0.000000     0.000000     0.000000     0.000000     0.000000     0.000000     0.000000     0.000000     0.000000
    0.000000     0.000000     0.000000     0.000000     0.000000     0.000000     0.000000     0.000000     0.000000     0.000000     0.000000     0.000000     0.000000     0.000000     0.000000     0.000000
    0.000000     0.000000     0.000000     0.000000     0.000000     0.000000     0.000000     0.000000     0.000000     0.000000     0.000000     0.000000     0.000000     0.000000     0.000000     0.000000
    0.000000     0.000000     0.000000     0.000000     0.000000     0.000000     0.000000     0.000000     0.000000     0.000000     0.000000     0.000000     0.000000     0.000000     0.000000     0.000000
    0.000000     0.000000     0.000000     0.000000     0.000000     0.000000     0.000000     0.000000     0.000000     0.000000     0.000000     0.000000     0.000000     0.000000     0.000000     0.000000
    0.000000     0.000000     0.000000     0.000000     0.000000     0.000000     0.000000     0.000000     0.000000     0.000000     0.000000     0.000000     0.000000     0.000000     0.000000     0.000000
    0.000000     0.000000     0.000000     0.000000     0.000000     0.000000     0.000000     0.000000     0.000000     0.000000     0.000000     0.000000     0.000000     0.000000     0.000000     0.000000
    0.000000     0.000000     0.000000     0.000000     0.000000     0.000000     0.000000     0.000000     0.000000     0.000000     0.000000     0.000000     0.000000     0.000000     0.000000     0.000000
    0.017918     0.022300     0.026615     0.029196     0.019137     0.023388     0.026232     0.028296     0.020343     0.022772     0.024868     0.026320     0.020025     0.022252     0.023889     0.020319
    0.159897     0.226856     0.273130     0.361187     0.202218     0.248999     0.334260     0.385723     0.246165     0.331382     0.383375     0.435137     0.267852     0.355780     0.408934     0.460602
    0.161899     0.179693     0.262342     0.283088     0.162706     0.176155     0.262505     0.249822     0.157285     0.222353     0.181985     0.118114     0.138725     0.173108     0.115487     0.105108
    0.000000     0.000000     0.000000     0.000000     0.000000     0.000000     0.000000     0.000000     0.000000     0.000000     0.000000     0.000000     0.000000     0.000000     0.000000     0.000000
    0.000000     0.000000     0.000000     0.000000     0.000000     0.000000     0.000000     0.000000     0.000000     0.000000     0.000000     0.000000     0.000000     0.000000     0.000000     0.000000
    0.000000     0.000000     0.000000     0.000000     0.000000     0.000000     0.000000     0.000000     0.000000     0.000000     0.000000     0.000000     0.000000     0.000000     0.000000     0.000000
    0.000000     0.000000     0.000000     0.000000     0.000000     0.000000     0.000000     0.000000     0.000000     0.000000     0.000000     0.000000     0.000000     0.000000     0.000000     0.000000
    0.038043     0.046415     0.055233     0.064002     0.041432     0.050080     0.058789     0.064609     0.048401     0.055125     0.059909     0.064381     0.050284     0.055395     0.060063     0.063985
    0.000000     0.000000     0.000000     0.000000     0.000000     0.000000     0.000000     0.000000     0.000000     0.000000     0.000000     0.000000     0.000000     0.000000     0.000000     0.000000
    0.031151     0.036803     0.040143     0.042631     0.033407     0.037153     0.039847     0.041988     0.034132     0.036783     0.037124     0.046237     0.034092     0.035486     0.026589     0.033767
    0.000000     0.000000     0.000000     0.000000     0.000000     0.000000     0.000000     0.000000     0.000000     0.000000     0.000000     0.000000     0.000000     0.000000     0.000000     0.000000
    0.000000     0.000000     0.000000     0.000000     0.000000     0.000000     0.000000     0.000000     0.000000     0.000000     0.000000     0.000000     0.000000     0.000000     0.000000     0.000000
    0.000000     0.000000     0.000000     0.000000     0.000000     0.000000     0.000000     0.000000     0.000000     0.000000     0.000000     0.000000     0.000000     0.000000     0.000000     0.000000
    0.000000     0.000000     0.000000     0.000000     0.000000     0.000000     0.000000     0.000000     0.000000     0.000000     0.000000     0.000000     0.000000     0.000000     0.000000     0.000000
    0.011946     0.010571     0.008401     0.000111     0.009816     0.007939     0.001021     0.000000     0.002371     0.000000     0.000000     0.000000     0.000000     0.000000     0.000000     0.000000
    0.000000     0.014971     0.019047     0.023471     0.012118     0.015971     0.020185     0.024749     0.013973     0.018100     0.022442     0.026064     0.014960     0.019111     0.022760     0.025810
    0.000000     0.000000     0.000000     0.000000     0.000000     0.000000     0.000000     0.000000     0.000000     0.000000     0.000000     0.000000     0.000000     0.000000     0.000000     0.000000
    0.000000     0.000000     0.000000     0.000000     0.000000     0.000000     0.000000     0.000000     0.000000     0.000000     0.000000     0.000000     0.000000     0.000000     0.000000     0.000000
    0.000000     0.000000     0.000000     0.000000     0.000000     0.000000     0.000000     0.000000     0.000000     0.000000     0.000000     0.000000     0.000000     0.000000     0.000000     0.000000
    0.000000     0.000000     0.000000     0.000000     0.000000     0.000000     0.000000     0.000000     0.000000     0.000000     0.000000     0.000000     0.000000     0.000000     0.000000     0.000000
    0.000000     0.000000     0.000000     0.000000     0.000000     0.000000     0.000000     0.000000     0.000000     0.000000     0.000000     0.000000     0.000000     0.000000     0.000000     0.000000
    0.000000     0.000000     0.000000     0.000000     0.000000     0.000000     0.000000     0.000000     0.000000     0.000000     0.000000     0.000000     0.000000     0.000000     0.000000     0.000000
    0.000000     0.000000     0.000000     0.000000     0.000000     0.000000     0.000000     0.000000     0.000000     0.000000     0.000000     0.000000     0.000000     0.000000     0.000000     0.000000
    0.000000     0.000000     0.000000     0.000000     0.000000     0.000000     0.000000     0.000000     0.000000     0.000000     0.000000     0.000000     0.000000     0.000000     0.000000     0.000000
    0.000000     0.000000     0.000000     0.000000     0.000000     0.000000     0.000000     0.000000     0.000000     0.000000     0.000000     0.000000     0.000000     0.000000     0.000000     0.000000
    0.000000     0.000000     0.000000     0.000000     0.000000     0.000000     0.000000     0.000000     0.000000     0.000000     0.000000     0.000000     0.000000     0.000000     0.000000     0.000000
    0.000000     0.000000     0.000000     0.000000     0.000000     0.000000     0.000000     0.000000     0.000000     0.000000     0.000000     0.000000     0.000000     0.000000     0.000000     0.000000
    0.000000     0.000000     0.000000     0.000000     0.000000     0.000000     0.000000     0.000000     0.000000     0.000000     0.000000     0.000000     0.000000     0.000000     0.000000     0.000000
    0.000000     0.000000     0.000000     0.000000     0.000000     0.000000     0.000000     0.000000     0.000000     0.000000     0.000000     0.000000     0.000000     0.000000     0.000000     0.000000
    0.000000     0.000000     0.000000     0.000000     0.000000     0.000000     0.000000     0.000000     0.000000     0.000000     0.000000     0.000000     0.000000     0.000000     0.000000     0.000000
    0.000000     0.000000     0.000000     0.000000     0.000000     0.000000     0.000000     0.000000     0.000000     0.000000     0.000000     0.000000     0.000000     0.000000     0.000000     0.000000
    0.000000     0.000000     0.000000     0.000000     0.000000     0.000000     0.000000     0.000000     0.000000     0.000000     0.000000     0.000000     0.000000     0.000000     0.000000     0.000000
    0.000000     0.000000     0.000000     0.000000     0.000000     0.000000     0.000000     0.000000     0.000000     0.000000     0.000000     0.000000     0.000000     0.000000     0.000000     0.000000
    0.000000     0.000000     0.000000     0.000000     0.000000     0.000000     0.000000     0.000000     0.000000     0.000000     0.000000     0.000000     0.000000     0.000000     0.000000     0.000000
    0.000000     0.000000     0.000000     0.000000     0.000000     0.000000     0.000000     0.000000     0.000000     0.000000     0.000000     0.000000     0.000000     0.000000     0.000000     0.000000
    0.000000     0.000000     0.000000     0.000000     0.000000     0.000000     0.000000     0.000000     0.000000     0.000000     0.000000     0.000000     0.000000     0.000000     0.000000     0.000000
    0.000000     0.000000     0.000000     0.000000     0.000000     0.000000     0.000000     0.000000     0.000000     0.000000     0.000000     0.000000     0.000000     0.000000     0.000000     0.000000
    0.000000     0.000000     0.000000     0.000000     0.000000     0.000000     0.000000     0.000000     0.000000     0.000000     0.000000     0.000000     0.000000     0.000000     0.000000     0.000000
    0.000000     0.000000     0.000000     0.000000     0.000000     0.000000     0.000000     0.000000     0.000000     0.000000     0.000000     0.000000     0.000000     0.000000     0.000000     0.000000
    0.000000     0.000000     0.000000     0.000000     0.000000     0.000000     0.000000     0.000000     0.000000     0.000000     0.000000     0.000000     0.000000     0.000000     0.000000     0.000000
    0.000000     0.000000     0.000000     0.000000     0.000000     0.000000     0.000000     0.000000     0.000000     0.000000     0.000000     0.000000     0.000000     0.000000     0.000000     0.000000
    0.000000     0.000000     0.000000     0.000000     0.000000     0.000000     0.000000     0.000000     0.000000     0.000000     0.000000     0.000000     0.000000     0.000000     0.000000     0.000000
    0.000000     0.000000     0.000000     0.000000     0.000000     0.000000     0.000000     0.000000     0.000000     0.000000     0.000000     0.000000     0.000000     0.000000     0.000000     0.000000
    0.000000     0.000000     0.000000     0.000000     0.000000     0.000000     0.000000     0.000000     0.000000     0.000000     0.000000     0.000000     0.000000     0.000000     0.000000     0.000000
    0.000000     0.000000     0.000000     0.000000     0.000000     0.000000     0.000000     0.000000     0.000000     0.000000     0.000000     0.000000     0.000000     0.000000     0.000000     0.000000
    0.000000     0.000000     0.000000     0.000000     0.000000     0.000000     0.000000     0.000000     0.000000     0.000000     0.000000     0.000000     0.000000     0.000000     0.000000     0.000000
    0.000000     0.000000     0.000000     0.000000     0.000000     0.000000     0.000000     0.000000     0.000000     0.000000     0.000000     0.000000     0.000000     0.000000     0.000000     0.000000
    0.000000     0.000000     0.000000     0.000000     0.000000     0.000000     0.000000     0.000000     0.000000     0.000000     0.000000     0.000000     0.000000     0.000000     0.000000     0.000000
    0.000000     0.000000     0.000000     0.000000     0.000000     0.000000     0.000000     0.000000     0.000000     0.000000     0.000000     0.000000     0.000000     0.000000     0.000000     0.000000
    0.000000     0.000000     0.000000     0.000000     0.000000     0.000000     0.000000     0.000000     0.000000     0.000000     0.000000     0.000000     0.000000     0.000000     0.000000     0.000000
    0.000000     0.000000     0.000000     0.000000     0.000000     0.000000     0.000000     0.000000     0.000000     0.000000     0.000000     0.000000     0.000000     0.000000     0.000000     0.000000
    0.000000     0.000000     0.000000     0.000000     0.000000     0.000000     0.000000     0.000000     0.000000     0.000000     0.000000     0.000000     0.000000     0.000000     0.000000     0.000000
    0.000000     0.000000     0.000000     0.000000     0.000000     0.000000     0.000000     0.000000     0.000000     0.000000     0.000000     0.000000     0.000000     0.000000     0.000000     0.000000
    0.000000     0.000000     0.000000     0.000000     0.000000     0.000000     0.000000     0.000000     0.000000     0.000000     0.000000     0.000000     0.000000     0.000000     0.000000     0.000000
    0.000000     0.000000     0.000000     0.000000     0.000000     0.000000     0.000000     0.000000     0.000000     0.000000     0.000000     0.000000     0.000000     0.000000     0.000000     0.000000
    0.000000     0.000000     0.000000     0.000000     0.000000     0.000000     0.000000     0.000000     0.000000     0.000000     0.000000     0.000000     0.000000     0.000000     0.000000     0.000000
    0.000000     0.000000     0.000000     0.000000     0.000000     0.000000     0.000000     0.000000     0.000000     0.000000     0.000000     0.000000     0.000000     0.000000     0.000000     0.000000
    0.000000     0.000000     0.000000     0.000000     0.000000     0.000000     0.000000     0.000000     0.000000     0.000000     0.000000     0.000000     0.000000     0.000000     0.000000     0.000000
    0.000000     0.000000     0.000000     0.000000     0.000000     0.000000     0.000000     0.000000     0.000000     0.000000     0.000000     0.000000     0.000000     0.000000     0.000000     0.000000
    0.000000     0.000000     0.000000     0.000000     0.000000     0.000000     0.000000     0.000000     0.000000     0.000000     0.000000     0.000000     0.000000     0.000000     0.000000     0.000000
    0.000000     0.000000     0.000000     0.000000     0.000000     0.000000     0.000000     0.000000     0.000000     0.000000     0.000000     0.000000     0.000000     0.000000     0.000000     0.000000
    0.000000     0.000000     0.000000     0.000000     0.000000     0.000000     0.000000     0.000000     0.000000     0.000000     0.000000     0.000000     0.000000     0.000000     0.000000     0.000000
    0.000000     0.000000     0.000000     0.000000     0.000000     0.000000     0.000000     0.000000     0.000000     0.000000     0.000000     0.000000     0.000000     0.000000     0.000000     0.000000
    0.000000     0.000000     0.000000     0.000000     0.000000     0.000000     0.000000     0.000000     0.000000     0.000000     0.000000     0.000000     0.000000     0.000000     0.000000     0.000000
    0.000000     0.000000     0.000000     0.000000     0.000000     0.000000     0.000000     0.000000     0.000000     0.000000     0.000000     0.000000     0.000000     0.000000     0.000000     0.000000
    0.000000     0.000000     0.000000     0.000000     0.000000     0.000000     0.000000     0.000000     0.000000     0.000000     0.000000     0.000000     0.000000     0.000000     0.000000     0.000000
    0.000000     0.000000     0.000000     0.000000     0.000000     0.000000     0.000000     0.000000     0.000000     0.000000     0.000000     0.000000     0.000000     0.000000     0.000000     0.000000
   84.057968    83.224907    81.765549    79.540596    83.085068    81.729340    79.537277    76.656105    79.520874    76.845207    73.051392    68.299690    76.896591    73.213188    68.520683    62.823353
    0.000000     0.000000     0.000000     0.000000     0.000000     0.000000     0.000000     0.000000     0.000000     0.000000     0.000000     0.000000     0.000000     0.000000     0.000000     0.000000
   75.514221    73.708153    70.600945    66.239479    73.703033    70.803474    66.481255    61.309593    66.956367    62.067902    55.318401    47.591961    62.373627    55.817028    48.129536    37.982834
   56.256863    51.222893    42.790539    30.119230    51.616447    43.853706    31.242243    18.188889    33.479927    19.969917    13.517173     7.395002    21.198725    13.983055     7.886204     4.946011
   24.560427    10.420012     5.623926     3.567740    11.844865     5.799487     3.752802     1.651271     4.121670     1.935054     1.006877     0.159966     2.136852     1.073138     0.230016     0.000000
    2.878629     0.590273     0.000000     0.000000     0.823464     0.000000     0.000000     0.000000     0.000000     0.000000     0.000000     0.000000     0.000000     0.000000     0.000000     0.000000
    0.000000     0.000000     0.000000     0.000000     0.000000     0.000000     0.000000     0.000000     0.000000     0.000000     0.000000     0.000000     0.000000     0.000000     0.000000     0.000000
   79.816521    78.583893    76.597145    73.297653    78.507095    76.655571    73.432068    69.197578    73.690399    69.692596    64.643951    57.989307    69.903343    64.949455    58.424614    50.954288
   62.888321    58.986992    53.754684    45.387127    59.268417    54.237331    46.133205    34.531292    47.613979    36.735641    23.218264    16.386433    37.769970    24.436008    16.795706    11.101186
   32.012932    20.089567     8.610689     5.991260    21.392458     9.165648     6.114272     4.234677     6.358692     4.597661     2.410140     1.412078     4.768455     2.610247     1.470286     0.688198
    3.982428     2.045144     0.218781     0.000000     2.260046     0.300436     0.000000     0.000000     0.000000     0.000000     0.000000     0.000000     0.000000     0.000000     0.000000     0.000000
    0.000000     0.000000     0.000000     0.000000     0.000000     0.000000     0.000000     0.000000     0.000000     0.000000     0.000000     0.000000     0.000000     0.000000     0.000000     0.000000
    0.000000     0.000000     0.000000     0.000000     0.000000     0.000000     0.000000     0.000000     0.000000     0.000000     0.000000     0.000000     0.000000     0.000000     0.000000     0.000000
    3.734175     4.634911     5.467291     6.128489     4.003661     4.846797     5.532648     6.028807     4.361572     4.942720     5.282343     5.334398     4.401111     4.795901     4.920512     4.709482
    0.000000     0.000000     0.000000     0.000000     0.000000     0.000000     0.000000     0.000000     0.000000     0.000000     0.000000     0.000000     0.000000     0.000000     0.000000     0.000000
    0.000000     0.000000     0.000000     0.000000     0.000000     0.000000     0.000000     0.000000     0.000000     0.000000     0.000000     0.000000     0.000000     0.000000     0.000000     0.000000
    0.078600     0.045707     0.033121     0.018276     0.041465     0.029049     0.017244     0.000000     0.014042     0.001663     0.000000     0.000000     0.002556     0.000000     0.000000     0.000000
    0.962753     1.105315     1.064207     0.788859     0.946413     0.955771     0.737575     0.372394     0.614452     0.341818     0.286628     0.238618     0.330985     0.259964     0.221639     0.122904
    2.671410     3.258258     3.728750     4.017718     2.803789     3.299418     3.624020     3.751464     2.845808     3.081994     3.003271     2.635964     2.740191     2.739648     2.454926     1.649673
    0.000000     0.000000     0.000000     0.000000     0.000000     0.000000     0.000000     0.000000     0.000000     0.000000     0.000000     0.000000     0.000000     0.000000     0.000000     0.000000
    0.000009     0.000000     0.000000     0.000000     0.000000     0.000000     0.000000     0.000000     0.000000     0.000000     0.000000     0.000000     0.000000     0.000000     0.000000     0.000000
    0.281398     0.214834     0.132479     0.109141     0.204799     0.122891     0.103991     0.063186     0.092447     0.062513     0.010627     0.000000     0.060875     0.015098     0.000000     0.000000
    1.573359     1.798013     1.924424     1.763614     1.588514     1.742132     1.638511     1.244388     1.374398     1.125020     0.591978     0.445617     1.049645     0.597227     0.415527     0.352831
    3.187816     3.897728     4.532034     4.971739     3.386873     4.036260     4.507519     4.786012     3.591535     3.959759     4.118137     3.924406     3.545882     3.756955     3.648379     3.210670
   89.960373    90.210320    90.015953    89.634468    89.960838    89.798233    89.438011    88.534599    89.024925    88.320839    86.573334    83.948914    88.163406    86.540337    83.959930    80.820671
    0.000000     0.000000     0.000000     0.000000     0.000000     0.000000     0.000000     0.000000     0.000000     0.000000     0.000000     0.000000     0.000000     0.000000     0.000000     0.000000
   83.241837    82.691307    81.690414    80.396736    82.550804    81.586159    80.345039    77.864464    80.182755    78.070908    74.367897    69.669106    78.109413    74.559349    69.907906    64.172768
   67.515083    64.352776    60.234280    55.578320    64.572037    60.512424    55.965870    47.990856    56.616627    49.732067    37.976513    24.411303    50.404701    39.045715    25.564306    17.555534
   44.829643    34.304672    21.232531     8.566697    35.443981    22.509768     9.067698     6.331704    11.249778     6.621939     4.706362     2.505132     6.734790     4.883490     2.695631     1.474833
   11.079740     4.344118     2.216559     0.172379     4.532272     2.427094     0.247046     0.000000     0.602149     0.000000     0.000000     0.000000     0.000000     0.000000     0.000000     0.000000
    0.861363     0.000000     0.000000     0.000000     0.000000     0.000000     0.000000     0.000000     0.000000     0.000000     0.000000     0.000000     0.000000     0.000000     0.000000     0.000000
   85.564354    85.307877    84.558449    83.629402    85.129776    84.414268    83.505890    81.748550    83.239349    81.813255    78.686447    74.335785    81.758980    78.823944    74.530640    69.799713
   70.514648    67.983353    64.503296    60.529999    68.185623    64.716072    60.766636    55.178688    61.225864    56.392536    47.233925    34.487976    56.760983    48.184364    35.545963    22.343527
   47.028584    37.650803    26.318388    13.022827    38.994370    27.530064    14.287387     7.458434    16.795938     7.765913     6.174890     4.103302     8.267212     6.332957     4.278576     2.138389
   14.330575     4.823107     2.977093     0.807135     5.046567     3.177979     1.016806     0.000000     1.432783     0.017891     0.000000     0.000000     0.093171     0.000000     0.000000     0.000000
    1.368098     0.000000     0.000000     0.000000     0.000000     0.000000     0.000000     0.000000     0.000000     0.000000     0.000000     0.000000     0.000000     0.000000     0.000000     0.000000
    0.000000     0.000000     0.000000     0.000000     0.000000     0.000000     0.000000     0.000000     0.000000     0.000000     0.000000     0.000000     0.000000     0.000000     0.000000     0.000000
    2.359329     3.185521     4.031953     4.879966     2.594543     3.411578     4.242794     5.024405     3.033039     3.807935     4.465957     4.976085     3.223444     3.893389     4.426583     4.821935
    0.000000     0.000000     0.000000     0.000000     0.000000     0.000000     0.000000     0.000000     0.000000     0.000000     0.000000     0.000000     0.000000     0.000000     0.000000     0.000000
    0.000000     0.000000     0.000000     0.000000     0.000000     0.000000     0.000000     0.000000     0.000000     0.000000     0.000000     0.000000     0.000000     0.000000     0.000000     0.000000
    0.084689     0.083125     0.064268     0.038193     0.066021     0.053901     0.031929     0.027369     0.022292     0.018825     0.013430     0.003086     0.014634     0.011199     0.003399     0.000000
    0.672084     0.851305     1.009838     1.134421     0.683546     0.842837     0.978077     0.962145     0.674694     0.728149     0.630333     0.386989     0.609409     0.554714     0.363845     0.270912
    1.719469     2.296999     2.873118     3.427397     1.857829     2.417041     2.965965     3.427683     2.090550     2.572196     2.933680     3.154268     2.161316     2.543646     2.795782     2.858083
    0.000000     0.000000     0.000000     0.000000     0.000000     0.000000     0.000000     0.000000     0.000000     0.000000     0.000000     0.000000     0.000000     0.000000     0.000000     0.000000
    0.001933     0.000003     0.000000     0.000000     0.000524     0.000000     0.000000     0.000000     0.000000     0.000000     0.000000     0.000000     0.000000     0.000000     0.000000     0.000000
    0.263513     0.255156     0.214386     0.134492     0.233606     0.198046     0.130360     0.103944     0.117022     0.087983     0.071565     0.039446     0.079149     0.066783     0.039111     0.000000
    1.107002     1.351510     1.563832     1.746185     1.144587     1.357233     1.544930     1.616415     1.158983     1.292526     1.200581     0.885967     1.123799     1.084388     0.830144     0.412373
    2.069884     2.726394     3.381494     4.027663     2.247104     2.883554     3.520707     4.087167     2.556055     3.137140     3.574624     3.850984     2.677008     3.136969     3.445968     3.624483
   92.299561    93.192696    93.329178    93.424728    92.863144    93.054039    93.159004    93.122414    92.610855    92.649879    92.056190    90.137840    92.385666    91.899338    90.083206    87.788521
    0.000000     0.000000     0.000000     0.000000     0.000000     0.000000     0.000000     0.000000     0.000000     0.000000     0.000000     0.000000     0.000000     0.000000     0.000000     0.000000
   87.093781    87.256927    86.704025    86.082329    87.027260    86.523827    85.912064    85.074883    85.557228    84.846451    82.909935    79.125755    84.683311    82.935692    79.272560    75.037773
   72.947449    71.233139    67.772461    64.115723    71.306725    67.947945    64.306450    60.207767    64.678772    60.816933    54.051456    42.128307    61.033806    54.712170    43.120468    30.283463
   51.996357    45.064423    33.180157    20.707005    45.909172    34.299335    21.865137     9.642973    24.171434    11.158753     7.237884     5.295166    12.391420     7.349000     5.460212     3.371997
   23.209478     6.008039     4.067698     2.031168     6.845888     4.253583     2.223572     0.241741     2.606789     0.483428     0.000000     0.000000     0.688036     0.000000     0.000000     0.000000
    2.756356     0.000000     0.000000     0.000000     0.119506     0.000000     0.000000     0.000000     0.000000     0.000000     0.000000     0.000000     0.000000     0.000000     0.000000     0.000000
   87.379280    87.663521    87.192581    86.658508    87.418755    87.002548    86.477798    85.771812    86.102898    85.498962    83.798012    80.227127    85.322937    83.802330    80.359634    76.262169
   72.488419    71.246407    67.941803    64.453293    70.994621    68.102119    64.627533    60.790447    64.968224    61.311337    55.229084    44.361877    61.506779    55.848579    45.324440    32.798615
   50.517963    45.649403    33.905857    21.590174    44.733940    35.011597    22.732809    10.406692    25.010035    12.208204     7.416166     5.648194    13.418047     7.520784     5.808524     3.769333
   22.250776     6.109364     4.189157     2.175313     7.624518     4.373108     2.365461     0.358914     2.744466     0.651956     0.000000     0.000000     0.853181     0.000000     0.000000     0.000000
    2.633088     0.000000     0.000000     0.000000     0.285944     0.000000     0.000000     0.000000     0.000000     0.000000     0.000000     0.000000     0.000000     0.000000     0.000000     0.000000
    0.000000     0.000000     0.000000     0.000000     0.000000     0.000000     0.000000     0.000000     0.000000     0.000000     0.000000     0.000000     0.000000     0.000000     0.000000     0.000000
    1.577710     2.308648     3.064017     3.850494     1.769643     2.484870     3.240562     4.018112     2.110313     2.829852     3.543887     4.124854     2.278116     2.973257     3.564360     4.066329
    0.000000     0.000000     0.000000     0.000000     0.000000     0.000000     0.000000     0.000000     0.000000     0.000000     0.000000     0.000000     0.000000     0.000000     0.000000     0.000000
    0.000000     0.000000     0.000000     0.000000     0.000000     0.000000     0.000000     0.000000     0.000000     0.000000     0.000000     0.000000     0.000000     0.000000     0.000000     0.000000
    0.098410     0.114349     0.102560     0.079301     0.090427     0.085088     0.068517     0.044127     0.046056     0.031739     0.028248     0.020495     0.026354     0.023242     0.017701     0.007642
    0.556378     0.748169     0.918306     1.078063     0.577554     0.743922     0.902609     1.039593     0.578433     0.722542     0.775270     0.677651     0.572940     0.648875     0.592367     0.426533
    1.226764     1.767268     2.313288     2.870530     1.352039     1.871102     2.408814     2.946097     1.555285     2.059929     2.525009     2.861732     1.648578     2.109824     2.464787     2.727891
    0.000000     0.000000     0.000000     0.000000     0.000000     0.000000     0.000000     0.000000     0.000000     0.000000     0.000000     0.000000     0.000000     0.000000     0.000000     0.000000
    0.000354     0.000000     0.000000     0.000000     0.000009     0.000000     0.000000     0.000000     0.000000     0.000000     0.000000     0.000000     0.000000     0.000000     0.000000     0.000000
    0.153623     0.180009     0.160640     0.124620     0.144488     0.140257     0.112475     0.071409     0.086217     0.058452     0.051984     0.038843     0.052450     0.045600     0.035340     0.017803
    0.690420     0.909465     1.096084     1.271127     0.722641     0.908839     1.083323     1.238157     0.732855     0.893454     0.963205     0.853736     0.730158     0.823647     0.757706     0.561330
    1.338807     1.905999     2.474454     3.055414     1.477566     2.019763     2.581260     3.146735     1.701190     2.232380     2.727486     3.081231     1.806559     2.297434     2.670654     2.947197
   92.651726    93.523964    93.649666    93.731705    93.198608    93.370918    93.462883    93.395905    92.908882    92.924400    92.286926    90.349655    92.662689    92.127998    90.292686    87.967644
    0.000000     0.000000     0.000000     0.000000     0.000000     0.000000     0.000000     0.000000     0.000000     0.000000     0.000000     0.000000     0.000000     0.000000     0.000000     0.000000
   87.674934    87.941727    87.456642    86.905930    87.699379    87.264015    86.723053    85.986122    86.344025    85.715279    83.969727    80.380379    85.541435    83.973000    80.511635    76.381996
   72.846550    71.575310    68.239822    64.717201    71.326096    68.399498    64.891319    61.008221    65.232002    61.533218    55.394100    44.545258    61.732208    56.014404    45.508812    32.934483
   50.947365    45.919373    34.111195    21.725616    45.012783    35.224743    22.877138    10.447062    25.172514    12.289605     7.440179     5.675916    13.513504     7.544948     5.836430     3.789832
   22.694111     6.147378     4.216886     2.191926     7.691476     4.402185     2.383596     0.360371     2.765704     0.660351     0.000000     0.000000     0.863899     0.000000     0.000000     0.000000
    2.698142     0.000000     0.000000     0.000000     0.290671     0.000000     0.000000     0.000000     0.000000     0.000000     0.000000     0.000000     0.000000     0.000000     0.000000     0.000000
   87.054077    87.215103    86.675461    86.064766    86.986572    86.488594    85.888435    85.020859    85.521950    84.807869    82.806671    79.040237    84.648804    82.828003    79.180992    74.953362
   72.018600    70.312157    66.922127    63.336552    70.418388    67.090797    63.521061    59.413036    63.881630    60.071438    53.169682    41.354576    60.299046    53.827991    42.340195    29.599762
   51.045780    43.966545    32.109859    19.661581    44.940998    33.233414    20.825584     9.266794    23.144648    10.235564     7.090732     5.165874    11.388915     7.201593     5.330002     3.257932
   22.531052     5.846278     3.908634     1.874313     6.008991     4.095451     2.067893     0.200037     2.453613     0.346486     0.000000     0.000000     0.537195     0.000000     0.000000     0.000000
    2.663232     0.000000     0.000000     0.000000     0.000000     0.000000     0.000000     0.000000     0.000000     0.000000     0.000000     0.000000     0.000000     0.000000     0.000000     0.000000
    0.000000     0.000000     0.000000     0.000000     0.000000     0.000000     0.000000     0.000000     0.000000     0.000000     0.000000     0.000000     0.000000     0.000000     0.000000     0.000000
    1.595422     2.329446     3.088056     3.877697     1.787631     2.505737     3.264491     4.044014     2.128093     2.850126     3.564513     4.148204     2.295773     2.991336     3.585127     4.087900
    0.000000     0.000000     0.000000     0.000000     0.000000     0.000000     0.000000     0.000000     0.000000     0.000000     0.000000     0.000000     0.000000     0.000000     0.000000     0.000000
    0.000593     0.000000     0.000000     0.000000     0.000028     0.000000     0.000000     0.000000     0.000000     0.000000     0.000000     0.000000     0.000000     0.000000     0.000000     0.000000
    0.160528     0.186062     0.165334     0.127801     0.150241     0.144865     0.115645     0.072896     0.089282     0.060110     0.053110     0.039621     0.054153     0.046706     0.036112     0.018183
    0.702335     0.922218     1.108779     1.283554     0.734232     0.920643     1.094871     1.249087     0.742619     0.902911     0.971233     0.860538     0.738906     0.831287     0.764172     0.565413
    1.347443     1.916273     2.486439     3.069130     1.486178     2.029970     2.593036     3.159513     1.709409     2.241884     2.736821     3.091779     1.814584     2.305428     2.679853     2.956370
    0.000000     0.000000     0.000000     0.000000     0.000000     0.000000     0.000000     0.000000     0.000000     0.000000     0.000000     0.000000     0.000000     0.000000     0.000000     0.000000
    0.000000     0.000000     0.000000     0.000000     0.000000     0.000000     0.000000     0.000000     0.000000     0.000000     0.000000     0.000000     0.000000     0.000000     0.000000     0.000000
    0.091096     0.106207     0.095414     0.073208     0.083666     0.078635     0.063064     0.042023     0.041847     0.028601     0.026560     0.019212     0.023517     0.021696     0.016518     0.006894
    0.543690     0.733235     0.902847     1.062453     0.565016     0.730191     0.888601     1.021710     0.567669     0.710886     0.758120     0.661650     0.563239     0.633978     0.578254     0.413838
    1.234931     1.773616     2.317924     2.873131     1.359387     1.876514     2.412396     2.945517     1.560514     2.062833     2.522342     2.857554     1.652744     2.108716     2.462037     2.722885
    0.000000     0.000000     0.000000     0.000000     0.000000     0.000000     0.000000     0.000000     0.000000     0.000000     0.000000     0.000000     0.000000     0.000000     0.000000     0.000000
  190.374573   197.767517   205.713684   213.549210   196.156784   204.080521   211.919159   219.724823   208.658112   216.466415   224.348663   232.565369   214.844299   222.700821   230.904037   238.328384
    0.000000     0.000000     0.000000     0.000000     0.000000     0.000000     0.000000     0.000000     0.000000     0.000000     0.000000     0.000000     0.000000     0.000000     0.000000     0.000000
    0.440432     0.000000     0.000000     0.000000     0.000000     0.000000     0.000000     0.000000     0.000000     0.000000     0.000000     0.000000     0.000000     0.000000     0.000000     0.000000
   18.185713    14.461880    13.100340    11.614268    14.494671    13.149207    11.671876     8.775113    11.786222     9.275800     5.258576     0.706710     9.516155     5.548098     1.015347     0.000000
  116.663132   110.528839   103.194923    95.108521   110.534485   103.293755    95.262199    78.557610    95.564323    81.217461    57.688244    30.965174    82.487503    59.253063    32.644501    26.087908
  177.355698   181.999222   186.686951   191.203613   180.680405   185.360962   189.901611   192.098999   187.296478   190.112793   190.612076   190.748672   189.111084   189.650955   189.803268   187.202545
    0.000000     0.000000     0.000000     0.000000     0.000000     0.000000     0.000000     0.000000     0.000000     0.000000     0.000000     0.000000     0.000000     0.000000     0.000000     0.000000
    4.244482     0.258729     0.000000     0.000000     0.688891     0.000000     0.000000     0.000000     0.000000     0.000000     0.000000     0.000000     0.000000     0.000000     0.000000     0.000000
   42.120720    18.384809    15.847209    14.627996    20.877676    15.885515    14.668894    13.341341    14.749594    13.457397    11.683814     7.827624    13.510017    11.927993     8.087395     3.775990
  127.387672   125.316605   120.033249   113.585930   125.027206   120.074608   113.639374   106.551521   113.739372   106.865517    97.070442    74.581772   106.990479    98.362732    75.967926    50.777447
  180.028488   186.248337   191.620193   196.628616   184.807373   190.319061   195.310059   200.285751   192.669800   197.685715   202.061874   203.244141   196.383865   201.053146   202.250671   203.192459
    0.000000     0.000000     0.000000     0.000000     0.000000     0.000000     0.000000     0.000000     0.000000     0.000000     0.000000     0.000000     0.000000     0.000000     0.000000     0.000000
  108.364395   109.739586   110.749344   111.271545   109.078056   110.145218   110.687729   110.655991   109.520935   109.616722   109.027710   106.778069   109.090813   108.628014   106.405556   102.011887
    0.000000     0.000000     0.000000     0.000000     0.000000     0.000000     0.000000     0.000000     0.000000     0.000000     0.000000     0.000000     0.000000     0.000000     0.000000     0.000000
    0.058193     0.000000     0.000000     0.000000     0.000000     0.000000     0.000000     0.000000     0.000000     0.000000     0.000000     0.000000     0.000000     0.000000     0.000000     0.000000
    8.445509     6.585964     4.579659     2.248531     6.698830     4.748965     2.427432     1.159342     2.784320     1.225485     0.694745     0.093368     1.257237     0.732993     0.134144     0.000000
   61.065533    52.027317    39.955765    25.834454    52.636169    40.920204    26.858744    18.788738    28.901955    19.175116    15.251753    10.485117    19.358229    15.504401    10.762834     8.044608
   96.491783    95.671669    93.618195    90.589127    95.287361    93.398140    90.393860    86.444000    90.003036    86.293015    81.389053    73.770279    86.202759    81.497383    73.942986    62.101074
    0.000000     0.000000     0.000000     0.000000     0.000000     0.000000     0.000000     0.000000     0.000000     0.000000     0.000000     0.000000     0.000000     0.000000     0.000000     0.000000
    1.016743     0.034185     0.000000     0.000000     0.091019     0.000000     0.000000     0.000000     0.000000     0.000000     0.000000     0.000000     0.000000     0.000000     0.000000     0.000000
   15.544538     9.007565     7.302654     5.373400     9.383110     7.422032     5.531803     3.303287     5.847745     3.665015     1.543609     1.034146     3.839160     1.575866     1.068464     0.498864
   70.707306    65.994682    57.066799    45.476185    66.185249    57.714470    46.369179    32.896420    48.150047    34.962742    22.021299    18.274693    35.954494    22.205008    18.473934    13.945498
  101.422020   101.710602   100.995911    99.083572   101.216011   100.622787    98.817932    96.061951    98.286224    95.645851    92.300720    87.583809    95.423973    92.205147    87.511703    80.047409
   73.857674    71.094299    67.146744    62.208370    71.100517    67.296951    62.415104    56.486897    62.825317    57.123466    50.230896    41.055019    57.422203    50.716583    41.590034    29.952894
    0.000000     0.000000     0.000000     0.000000     0.000000     0.000000     0.000000     0.000000     0.000000     0.000000     0.000000     0.000000     0.000000     0.000000     0.000000     0.000000
   62.886284    58.037235    51.402824    43.568726    58.294853    51.881592    44.081745    34.116325    45.103390    35.717419    24.446629    20.458769    36.488083    24.788076    20.669008    14.703313
   36.201046    23.212490    13.523985     7.526000    24.363535    13.968291     7.991141     4.440940     8.920551     4.697686     2.922594     2.446201     4.821270     2.969409     2.469546     1.758175
    4.686112     2.587226     1.099797     0.275645     2.776778     1.162771     0.341798     0.000000     0.473828     0.000000     0.000000     0.000000     0.000000     0.000000     0.000000     0.000000
    0.000000     0.000000     0.000000     0.000000     0.000000     0.000000     0.000000     0.000000     0.000000     0.000000     0.000000     0.000000     0.000000     0.000000     0.000000     0.000000
    0.000000     0.000000     0.000000     0.000000     0.000000     0.000000     0.000000     0.000000     0.000000     0.000000     0.000000     0.000000     0.000000     0.000000     0.000000     0.000000
   68.718842    64.773918    59.476463    52.787807    64.937416    59.785484    53.221149    45.423885    54.083408    46.474678    37.542706    25.134163    46.975296    38.359707    26.000496    20.674305
   46.900875    37.698631    24.273764    15.150769    38.522949    25.509302    15.565721     9.769810    16.394625    10.712532     5.114830     3.231470    11.167461     5.240277     3.364062     2.762476
    7.382912     4.883139     2.717788     1.326503     5.018918     2.920732     1.385690     0.593906     1.503831     0.727649     0.000000     0.000000     0.792232     0.000000     0.000000     0.000000
    0.176381     0.000000     0.000000     0.000000     0.000000     0.000000     0.000000     0.000000     0.000000     0.000000     0.000000     0.000000     0.000000     0.000000     0.000000     0.000000
    0.000000     0.000000     0.000000     0.000000     0.000000     0.000000     0.000000     0.000000     0.000000     0.000000     0.000000     0.000000     0.000000     0.000000     0.000000     0.000000
  108.744858   110.115128   111.149986   111.677902   109.453522   110.530403   111.092857   111.072655   109.923683   110.031235   109.463516   107.213051   109.504723   109.040718   106.840218   102.462494
    0.000000     0.000000     0.000000     0.000000     0.000000     0.000000     0.000000     0.000000     0.000000     0.000000     0.000000     0.000000     0.000000     0.000000     0.000000     0.000000
   95.862816    95.054955    93.039909    90.028000    94.674606    92.812531    89.835564    85.921410    89.450417    85.775780    80.937866    73.339371    85.688576    81.001785    73.515060    61.855640
   61.199005    52.258327    40.250126    26.153870    52.866169    41.203323    27.176733    18.768133    29.217178    19.151976    15.265351    10.528821    19.333982    15.507097    10.805000     7.988209
    8.586544     6.646389     4.649792     2.322314     6.758965     4.817329     2.500889     1.173608     2.857142     1.239146     0.712837     0.115965     1.270614     0.750409     0.156388     0.000000
    0.074814     0.000000     0.000000     0.000000     0.000000     0.000000     0.000000     0.000000     0.000000     0.000000     0.000000     0.000000     0.000000     0.000000     0.000000     0.000000
    0.000000     0.000000     0.000000     0.000000     0.000000     0.000000     0.000000     0.000000     0.000000     0.000000     0.000000     0.000000     0.000000     0.000000     0.000000     0.000000
  101.170197   101.437965   100.747276    98.833359   100.950897   100.357361    98.572693    95.810898    98.051064    95.403679    92.058334    87.349144    95.187080    91.963226    87.281281    79.839722
   70.731094    65.984077    57.071072    45.435135    66.179970    57.687038    46.332703    32.801300    48.122948    34.876812    21.988369    18.216276    35.874443    22.174078    18.418583    13.869397
   15.613976     9.029510     7.312807     5.375938     9.406502     7.427161     5.534963     3.296655     5.852183     3.659664     1.547531     1.033496     3.834648     1.580036     1.068208     0.494336
    1.026377     0.036555     0.000000     0.000000     0.093520     0.000000     0.000000     0.000000     0.000000     0.000000     0.000000     0.000000     0.000000     0.000000     0.000000     0.000000
    0.000000     0.000000     0.000000     0.000000     0.000000     0.000000     0.000000     0.000000     0.000000     0.000000     0.000000     0.000000     0.000000     0.000000     0.000000     0.000000
   73.874626    71.119904    67.209373    62.284840    71.128548    67.345459    62.492714    56.590221    62.905296    57.228893    50.369389    41.205727    57.529270    50.832062    41.742317    30.144253
    0.000000     0.000000     0.000000     0.000000     0.000000     0.000000     0.000000     0.000000     0.000000     0.000000     0.000000     0.000000     0.000000     0.000000     0.000000     0.000000
   68.729279    64.770920    59.490726    52.792465    64.939285    59.782146    53.229099    45.418903    54.098053    46.475883    37.521961    25.103691    46.980377    38.332741    25.973513    20.629704
   46.923374    37.697422    24.293692    15.127756    38.526154    25.497372    15.544104     9.731601    16.375889    10.677016     5.107030     3.221672    11.133806     5.233130     3.354831     2.749365
    7.397673     4.883214     2.721071     1.322720     5.019626     2.919001     1.382057     0.587826     1.500512     0.721863     0.000000     0.000000     0.786662     0.000000     0.000000     0.000000
    0.178279     0.000000     0.000000     0.000000     0.000000     0.000000     0.000000     0.000000     0.000000     0.000000     0.000000     0.000000     0.000000     0.000000     0.000000     0.000000
    0.000000     0.000000     0.000000     0.000000     0.000000     0.000000     0.000000     0.000000     0.000000     0.000000     0.000000     0.000000     0.000000     0.000000     0.000000     0.000000
   62.876614    58.059299    51.485729    43.684010    58.317020    51.951191    44.196198    34.327362    45.216225    35.928326    24.470728    20.489317    36.699413    25.020666    20.699944    14.795811
   36.406582    23.477079    13.694224     7.702434    24.629194    14.133454     8.167305     4.474199     9.096198     4.730864     2.922550     2.446862     4.854479     3.005894     2.470244     1.768299
    4.721887     2.632293     1.127086     0.303122     2.822018     1.189501     0.369239     0.000000     0.501203     0.000000     0.000000     0.000000     0.000000     0.000000     0.000000     0.000000
    0.000000     0.000000     0.000000     0.000000     0.000000     0.000000     0.000000     0.000000     0.000000     0.000000     0.000000     0.000000     0.000000     0.000000     0.000000     0.000000
    0.000000     0.000000     0.000000     0.000000     0.000000     0.000000     0.000000     0.000000     0.000000     0.000000     0.000000     0.000000     0.000000     0.000000     0.000000     0.000000
   90.812340    91.045898    90.862122    90.472961    90.794357    90.635460    90.272339    89.288658    89.853050    89.093849    87.262039    84.604218    88.946564    87.228561    84.613617    81.426193
    0.000000     0.000000     0.000000     0.000000     0.000000     0.000000     0.000000     0.000000     0.000000     0.000000     0.000000     0.000000     0.000000     0.000000     0.000000     0.000000
   86.343643    86.055054    85.294098    84.337219    85.879402    85.145538    84.213242    82.308403    83.948334    82.409294    79.162033    74.769417    82.395058    79.302910    74.965836    70.148918
   71.195816    68.545868    65.006935    60.962681    68.756310    65.221581    61.205128    55.247967    61.639404    56.552490    47.061359    34.255535    57.078606    48.022518    35.322079    22.436127
   46.587132    36.943802    25.539448    12.181944    38.306145    26.764685    13.465633     7.456964    15.783539     7.674905     6.134062     4.053303     7.900928     6.293857     4.229985     2.146430
   13.169620     4.688445     2.831682     0.652955     4.914967     3.034854     0.865775     0.000000     1.249849     0.000000     0.000000     0.000000     0.023535     0.000000     0.000000     0.000000
    1.184744     0.000000     0.000000     0.000000     0.000000     0.000000     0.000000     0.000000     0.000000     0.000000     0.000000     0.000000     0.000000     0.000000     0.000000     0.000000
   84.237297    83.695175    82.726051    81.431763    83.545815    82.605972    81.370193    78.788658    81.200859    79.011482    75.225960    70.501305    79.056396    75.411926    70.733879    64.971336
   67.861488    64.685997    60.609917    55.942863    64.897858    60.872318    56.322060    48.088802    56.987247    49.934124    38.021824    24.452150    50.616165    39.086105    25.599014    17.552959
   44.604576    33.917614    20.823591     8.432049    35.064201    22.095030     8.934207     6.324758    10.801608     6.632542     4.691986     2.490480     6.746892     4.868460     2.680134     1.453531
   10.496201     4.272185     2.139791     0.143039     4.461767     2.349726     0.218109     0.000000     0.518754     0.000000     0.000000     0.000000     0.000000     0.000000     0.000000     0.000000
    0.768856     0.000000     0.000000     0.000000     0.000000     0.000000     0.000000     0.000000     0.000000     0.000000     0.000000     0.000000     0.000000     0.000000     0.000000     0.000000
    0.000000     0.000000     0.000000     0.000000     0.000000     0.000000     0.000000     0.000000     0.000000     0.000000     0.000000     0.000000     0.000000     0.000000     0.000000     0.000000
    2.400321     3.238101     4.098080     4.959257     2.638995     3.468861     4.313033     5.099325     3.086125     3.869613     4.529881     5.047256     3.278300     3.950257     4.490834     4.890666
    0.000000     0.000000     0.000000     0.000000     0.000000     0.000000     0.000000     0.000000     0.000000     0.000000     0.000000     0.000000     0.000000     0.000000     0.000000     0.000000
    0.002574     0.000021     0.000000     0.000000     0.000829     0.000000     0.000000     0.000000     0.000000     0.000000     0.000000     0.000000     0.000000     0.000000     0.000000     0.000000
    0.276282     0.261927     0.217522     0.133255     0.241708     0.201852     0.130056     0.106107     0.116634     0.090610     0.072564     0.038800     0.082240     0.068003     0.038754     0.000000
    1.142727     1.388237     1.601102     1.782701     1.178899     1.392449     1.579713     1.632780     1.189474     1.313195     1.206407     0.880182     1.149137     1.092096     0.826837     0.418945
    2.107463     2.773604     3.439336     4.095726     2.287235     2.933979     3.581167     4.147619     2.602050     3.187692     3.625096     3.904776     2.723132     3.182154     3.494796     3.670802
    0.000000     0.000000     0.000000     0.000000     0.000000     0.000000     0.000000     0.000000     0.000000     0.000000     0.000000     0.000000     0.000000     0.000000     0.000000     0.000000
    0.000000     0.000000     0.000000     0.000000     0.000000     0.000000     0.000000     0.000000     0.000000     0.000000     0.000000     0.000000     0.000000     0.000000     0.000000     0.000000
    0.081080     0.079450     0.061519     0.037492     0.062652     0.051287     0.031197     0.026713     0.020905     0.018154     0.013032     0.003048     0.013988     0.010791     0.003321     0.000000
    0.675819     0.857574     1.020078     1.146183     0.688204     0.850854     0.987939     0.968327     0.682446     0.733790     0.634974     0.392814     0.614352     0.558653     0.368865     0.275413
    1.754135     2.339343     2.924696     3.486780     1.894681     2.462448     3.019347     3.481822     2.132871     2.618035     2.979863     3.204114     2.202888     2.585420     2.841197     2.906336
   84.252945    83.387268    81.941231    79.672874    83.252274    81.877563    79.673820    76.724266    79.666862    76.913940    73.092331    68.283028    76.972290    73.258430    68.509178    62.798771
    0.000000     0.000000     0.000000     0.000000     0.000000     0.000000     0.000000     0.000000     0.000000     0.000000     0.000000     0.000000     0.000000     0.000000     0.000000     0.000000
   80.045570    78.761803    76.755920    73.354515    78.691498    76.789284    73.496338    69.124489    73.770889    69.644691    64.515831    57.727058    69.866608    64.829468    58.171688    50.641941
   62.698063    58.712334    53.405663    44.778477    59.007378    53.873486    45.541302    33.556316    47.057594    35.808815    22.193726    15.883087    36.864758    23.427431    16.298405    10.578790
   31.419458    19.359791     8.219646     5.885205    20.683996     8.770946     6.010920     4.069057     6.261052     4.439746     2.237531     1.332497     4.613993     2.440202     1.391546     0.606685
    3.887301     1.928800     0.162551     0.000000     2.147012     0.243932     0.000000     0.000000     0.000000     0.000000     0.000000     0.000000     0.000000     0.000000     0.000000     0.000000
    0.000000     0.000000     0.000000     0.000000     0.000000     0.000000     0.000000     0.000000     0.000000     0.000000     0.000000     0.000000     0.000000     0.000000     0.000000     0.000000
   75.556648    73.765770    70.776649    66.430298    73.760887    70.932076    66.669922    61.525230    67.141502    62.239609    55.557697    47.863483    62.545166    56.053329    48.398731    38.336571
   56.080063    51.133549    43.199574    30.583378    51.521282    44.037392    31.697485    18.261513    33.918190    20.434992    13.619823     7.537094    21.657228    14.082323     8.025271     5.006744
   25.071148    11.051856     5.689816     3.642378    12.453745     5.827936     3.826008     1.657716     4.192140     2.010083     1.017672     0.176471     2.210803     1.083457     0.246086     0.000000
    2.971501     0.701589     0.000000     0.000000     0.930969     0.000000     0.000000     0.000000     0.000000     0.000000     0.000000     0.000000     0.000000     0.000000     0.000000     0.000000
    0.000000     0.000000     0.000000     0.000000     0.000000     0.000000     0.000000     0.000000     0.000000     0.000000     0.000000     0.000000     0.000000     0.000000     0.000000     0.000000
    0.000000     0.000000     0.000000     0.000000     0.000000     0.000000     0.000000     0.000000     0.000000     0.000000     0.000000     0.000000     0.000000     0.000000     0.000000     0.000000
    3.751442     4.654594     5.495901     6.157646     4.020891     4.867640     5.559119     6.050339     4.382807     4.959150     5.300537     5.349325     4.415823     4.812239     4.934130     4.725657
    0.000000     0.000000     0.000000     0.000000     0.000000     0.000000     0.000000     0.000000     0.000000     0.000000     0.000000     0.000000     0.000000     0.000000     0.000000     0.000000
    0.000015     0.000000     0.000000     0.000000     0.000000     0.000000     0.000000     0.000000     0.000000     0.000000     0.000000     0.000000     0.000000     0.000000     0.000000     0.000000
    0.282137     0.212130     0.133311     0.108039     0.202967     0.123716     0.103185     0.060196     0.092181     0.060430     0.006857     0.000000     0.059195     0.011785     0.000000     0.000000
    1.591826     1.812853     1.932953     1.750839     1.603892     1.750370     1.629339     1.209845     1.371656     1.101511     0.550867     0.441889     1.030979     0.561708     0.412518     0.347282
    3.215981     3.924343     4.559326     4.988644     3.412881     4.059683     4.525558     4.787113     3.611200     3.966390     4.112066     3.894794     3.554623     3.753890     3.623612     3.169967
    0.000000     0.000000     0.000000     0.000000     0.000000     0.000000     0.000000     0.000000     0.000000     0.000000     0.000000     0.000000     0.000000     0.000000     0.000000     0.000000
    0.000000     0.000000     0.000000     0.000000     0.000000     0.000000     0.000000     0.000000     0.000000     0.000000     0.000000     0.000000     0.000000     0.000000     0.000000     0.000000
    0.076592     0.045879     0.032955     0.018831     0.041192     0.028699     0.017607     0.000000     0.014077     0.002292     0.000000     0.000000     0.003011     0.000000     0.000000     0.000000
    0.954505     1.099379     1.075593     0.807317     0.940522     0.961146     0.753147     0.372105     0.624813     0.357398     0.286889     0.239681     0.343994     0.260136     0.222539     0.125569
    2.663498     3.248557     3.725111     4.015247     2.795528     3.292990     3.621560     3.752453     2.843565     3.077796     3.007642     2.646676     2.736196     2.743094     2.464125     1.673783
    0.000000     0.000000     0.000000     0.000000     0.000000     0.000000     0.000000     0.000000     0.000000     0.000000     0.000000     0.000000     0.000000     0.000000     0.000000     0.000000
  118.242401   121.064087   123.616425   125.931335   120.304413   122.895561   125.221413   127.334198   123.799408   125.976967   127.718170   129.108414   125.279732   127.066559   128.471558   129.289154
    0.000000     0.000000     0.000000     0.000000     0.000000     0.000000     0.000000     0.000000     0.000000     0.000000     0.000000     0.000000     0.000000     0.000000     0.000000     0.000000
    5.042605     3.286494     1.136749     0.075247     3.466174     1.374056     0.128769     0.000000     0.235187     0.000000     0.000000     0.000000     0.000000     0.000000     0.000000     0.000000
   41.114426    30.595520    17.634443    10.761737    31.635477    19.035910    11.106147     9.144764    11.789998     9.341753     7.830665     5.844725     9.430951     7.944377     5.999276     3.813953
   84.220978    82.864059    80.595123    76.740791    82.730545    80.620232    76.855881    69.821617    77.077507    70.851143    61.971794    50.121456    71.307655    62.580849    50.986244    37.884323
  110.124207   112.286674   114.133774   115.336662   111.645302   113.547691   114.796715   115.259773   113.712349   114.362167   114.225494   112.852814   113.887505   113.812439   112.545471   110.619247
    0.000000     0.000000     0.000000     0.000000     0.000000     0.000000     0.000000     0.000000     0.000000     0.000000     0.000000     0.000000     0.000000     0.000000     0.000000     0.000000
    3.367743     1.343548     0.000000     0.000000     1.547648     0.000000     0.000000     0.000000     0.000000     0.000000     0.000000     0.000000     0.000000     0.000000     0.000000     0.000000
   30.435644    18.179613     9.507792     7.985042    19.378805     9.611870     8.096235     6.408247     8.317709     6.696720     4.561599     2.149807     6.820355     4.741750     2.341072     1.295422
   78.213531    75.744835    70.926132    61.982254    75.721527    71.476524    62.577415    52.598423    63.762157    54.202579    41.415939    26.907473    54.875175    42.442596    28.002428    21.300308
  106.127151   107.756393   108.657181   108.604561   107.179047   108.221138   108.189766   107.683083   107.358360   107.030861   105.292091   102.875908   106.647163   105.059280   102.664680    99.253555
    0.000000     0.000000     0.000000     0.000000     0.000000     0.000000     0.000000     0.000000     0.000000     0.000000     0.000000     0.000000     0.000000     0.000000     0.000000     0.000000
  122.206322   125.879738   129.482178   133.054749   125.042091   128.642838   132.222244   135.515381   130.547470   133.917572   136.979599   139.784332   133.107407   136.191727   139.014816   141.669281
    0.260134     0.000000     0.000000     0.000000     0.000000     0.000000     0.000000     0.000000     0.000000     0.000000     0.000000     0.000000     0.000000     0.000000     0.000000     0.000000
    8.549212     5.701597     3.976617     2.112473     5.861485     4.147016     2.290276     0.364654     2.643082     0.508081     0.000000     0.000000     0.728419     0.000000     0.000000     0.000000
   53.708290    45.832321    35.553425    24.430595    46.742397    36.528877    25.451380    13.782601    27.475359    14.652263    10.917542     9.507147    15.940142    10.994955     9.599779     8.087056
   90.824600    90.560646    89.636482    88.516655    90.329140    89.430084    88.324249    86.049103    87.930611    86.066666    81.758415    73.589752    85.991096    82.132660    74.058632    65.258926
  115.398750   118.354118   121.163551   123.955376   117.626923   120.439537   123.237106   125.634750   121.791588   124.351143   125.982330   126.705765   123.662704   125.415611   126.176476   126.686081
    0.163821     0.000000     0.000000     0.000000     0.000000     0.000000     0.000000     0.000000     0.000000     0.000000     0.000000     0.000000     0.000000     0.000000     0.000000     0.000000
    7.222397     4.749217     2.886857     0.844840     4.912074     3.069923     1.064628     0.000000     1.462870     0.037575     0.000000     0.000000     0.092221     0.000000     0.000000     0.000000
   48.855484    39.788933    28.622618    16.332060    40.725521    29.683901    17.624886    10.673964    19.949114    11.031179     9.470062     7.900924    11.380610     9.569860     8.011314     6.117404
   88.011726    87.108711    85.635689    83.689018    86.938721    85.507835    83.667145    79.524948    83.500168    80.183929    72.430672    63.279121    80.283417    72.946259    63.860004    52.676468
  112.182198   114.850342   117.411163   119.840073   114.167450   116.736115   119.183823   120.893219   117.852592   119.799141   120.661766   121.045891   119.206184   120.159142   120.566734   120.116386
    0.000000     0.000000     0.000000     0.000000     0.000000     0.000000     0.000000     0.000000     0.000000     0.000000     0.000000     0.000000     0.000000     0.000000     0.000000     0.000000
  123.539589   127.663223   131.524368   135.508865   126.767120   130.638443   134.615219   138.634583   132.826828   136.858032   140.582001   143.846619   135.956573   139.737228   143.025238   146.237869
    0.917428     0.000000     0.000000     0.000000     0.054378     0.000000     0.000000     0.000000     0.000000     0.000000     0.000000     0.000000     0.000000     0.000000     0.000000     0.000000
   12.793320     6.545673     4.901341     3.176469     6.908331     5.056203     3.336684     1.482697     3.655959     1.863329     0.230523     0.000000     2.033087     0.281353     0.000000     0.000000
   56.297588    51.043716    41.265427    31.003281    51.265110    42.145115    31.915148    20.861841    33.731785    23.059200    13.052871    10.621766    24.028831    13.367902    10.702381     9.319166
   92.055649    92.490479    91.774902    90.986092    92.116417    91.532593    90.749100    89.734871    90.272774    89.397545    86.891380    80.704933    89.172638    86.907440    81.096275    73.127762
  116.627953   119.928818   122.944565   126.050148   119.152626   122.182877   125.282761   128.399643   123.747185   126.885017   129.489807   130.867126   126.112305   128.818497   130.286697   131.310455
    0.661936     0.000000     0.000000     0.000000     0.022729     0.000000     0.000000     0.000000     0.000000     0.000000     0.000000     0.000000     0.000000     0.000000     0.000000     0.000000
   11.164485     6.262393     4.578887     2.810381     6.518793     4.738810     2.976079     1.049027     3.305965     1.458532     0.036974     0.000000     1.635232     0.092193     0.000000     0.000000
   55.771702    49.630501    39.601547    29.059481    50.322865    40.512680    30.005602    18.480545    31.888391    20.861780    12.008442    10.462512    21.875359    12.355666    10.549344     9.098030
   93.539536    93.658447    92.799850    91.847382    93.376778    92.572227    91.627281    90.321808    91.182877    90.086174    87.084526    79.439751    89.885780    87.144699    79.870644    71.490738
  115.376549   118.567505   121.514923   124.542603   117.815239   120.771812   123.794914   126.779938   122.297684   125.326302   127.702873   128.831802   124.577324   127.064301   128.270828   129.211838
    0.000000     0.000000     0.000000     0.000000     0.000000     0.000000     0.000000     0.000000     0.000000     0.000000     0.000000     0.000000     0.000000     0.000000     0.000000     0.000000
  123.721283   127.815125   131.648346   135.601791   126.926163   130.764389   134.710571   138.680588   132.927307   136.917023   140.585159   143.810699   136.023651   139.743317   142.992432   146.167221
    0.619404     0.000000     0.000000     0.000000     0.000000     0.000000     0.000000     0.000000     0.000000     0.000000     0.000000     0.000000     0.000000     0.000000     0.000000     0.000000
   10.796406     6.133629     4.466175     2.713771     6.272895     4.625111     2.878711     0.942261     3.207263     1.370287     0.038474     0.000000     1.551167     0.091996     0.000000     0.000000
   54.710884    48.521572    38.594280    28.154112    49.306568    39.499512    29.095789    17.510149    30.970860    20.009714    11.668992    10.143961    21.050550    12.006518    10.229080     8.807205
   91.662064    91.787827    90.978287    90.074020    91.523651    90.747719    89.851791    88.509285    89.403908    88.332520    85.261444    77.782761    88.148376    85.321274    78.202614    69.985817
  116.720741   119.914688   122.862724   125.887207   119.155540   122.108330   125.128944   128.081650   123.611053   126.621193   128.933792   130.015091   125.870300   128.287231   129.448639   130.331467
    0.861489     0.000000     0.000000     0.000000     0.055277     0.000000     0.000000     0.000000     0.000000     0.000000     0.000000     0.000000     0.000000     0.000000     0.000000     0.000000
   12.566504     6.625228     4.966395     3.226079     6.995113     5.122738     3.387916     1.516340     3.710469     1.900887     0.252145     0.000000     2.072861     0.303927     0.000000     0.000000
   56.929825    51.559654    41.696632    31.344053    51.792492    42.584404    32.264870    21.107630    34.099613    23.327122    13.225716    10.679102    24.309505    13.545823    10.759574     9.371328
   92.377747    92.805527    92.086731    91.293289    92.430443    91.841141    91.053268    90.026756    90.571022    89.686142    87.162468    81.036522    89.460716    87.175629    81.427048    73.426003
  116.617363   119.912209   122.919304   126.014534   119.138565   122.157059   125.246849   128.341003   123.710861   126.831627   129.407608   130.778534   126.062309   128.736267   130.198715   131.202850
    0.000000     0.000000     0.000000     0.000000     0.000000     0.000000     0.000000     0.000000     0.000000     0.000000     0.000000     0.000000     0.000000     0.000000     0.000000     0.000000
  122.473923   126.142151   129.760742   133.332245   125.304680   128.914856   132.497818   135.746613   130.821945   134.154221   137.195053   140.001801   133.350723   136.406570   139.230942   141.883636
    0.146229     0.000000     0.000000     0.000000     0.000000     0.000000     0.000000     0.000000     0.000000     0.000000     0.000000     0.000000     0.000000     0.000000     0.000000     0.000000
    7.094265     4.696949     2.825125     0.757200     4.861144     3.007606     0.978199     0.000000     1.389693     0.011042     0.000000     0.000000     0.066426     0.000000     0.000000     0.000000
   48.553696    39.332676    28.118532    15.675679    40.276730    29.174656    16.975042    10.496497    19.380857    10.722061     9.296531     7.737806    11.076780     9.395437     7.847108     5.965151
   87.516594    86.627289    85.208252    83.260948    86.452049    85.065788    83.232605    78.896957    83.085045    79.690353    71.811394    62.709442    79.794273    72.320145    63.282516    52.156929
  114.592216   117.307739   119.931351   122.394966   116.605553   119.229813   121.718811   123.353760   120.352821   122.263428   123.033363   123.348358   121.663788   122.521255   122.860703   122.336731
    0.225264     0.000000     0.000000     0.000000     0.000000     0.000000     0.000000     0.000000     0.000000     0.000000     0.000000     0.000000     0.000000     0.000000     0.000000     0.000000
    8.193435     5.517153     3.790729     1.924126     5.680045     3.962421     2.103888     0.320798     2.453757     0.424388     0.000000     0.000000     0.527401     0.000000     0.000000     0.000000
   53.133984    45.065094    34.774967    23.632933    45.991859    35.756107    24.663771    13.796131    26.666929    14.436754    11.132135     9.700595    15.047295    11.210206     9.793842     8.244106
   92.572205    92.264999    91.322868    90.171257    92.029907    91.105896    89.971611    87.509544    89.557999    87.549660    82.894066    74.605370    87.516945    83.272575    75.077957    66.059341
  114.821518   117.757538   120.566628   123.346123   117.037041   119.842567   122.630943   124.943954   121.194183   123.686592   125.252609   126.000221   123.030106   124.688370   125.471428   125.967644
    0.000000     0.000000     0.000000     0.000000     0.000000     0.000000     0.000000     0.000000     0.000000     0.000000     0.000000     0.000000     0.000000     0.000000     0.000000     0.000000
  117.600761   120.363525   122.871437   125.117279   119.617012   122.158119   124.420761   126.459625   123.026321   125.130562   126.806412   128.125961   124.448685   126.167717   127.502831   128.284454
    0.000000     0.000000     0.000000     0.000000     0.000000     0.000000     0.000000     0.000000     0.000000     0.000000     0.000000     0.000000     0.000000     0.000000     0.000000     0.000000
    3.500983     1.502148     0.000000     0.000000     1.701640     0.052075     0.000000     0.000000     0.000000     0.000000     0.000000     0.000000     0.000000     0.000000     0.000000     0.000000
   30.968676    18.867319     9.343368     7.845252    20.041107     9.702366     7.955298     6.306332     8.174613     6.577742     4.486414     2.107896     6.700300     4.664643     2.297241     1.237386
   76.960571    74.533356    70.148308    61.342754    74.517708    70.407204    61.930851    52.178341    63.102337    53.675922    41.145756    26.824602    54.342178    42.160877    27.908245    21.118256
  106.995316   108.607452   109.566185   109.468094   108.029640   109.082649   109.053780   108.525681   108.223930   107.837433   106.090958   103.620804   107.456322   105.858917   103.411713    99.962738
    0.000000     0.000000     0.000000     0.000000     0.000000     0.000000     0.000000     0.000000     0.000000     0.000000     0.000000     0.000000     0.000000     0.000000     0.000000     0.000000
    4.901088     3.122585     0.945550     0.006031     3.305910     1.182719     0.060534     0.000000     0.169019     0.000000     0.000000     0.000000     0.000000     0.000000     0.000000     0.000000
   40.223469    29.564617    16.433065    10.252366    30.627003    17.832769    10.604036     8.961401    11.303317     9.165341     7.636691     5.615846     9.257583     7.752552     5.772914     3.575475
   84.057175    82.645111    80.311844    76.341400    82.517456    80.328346    76.464417    68.955956    76.703873    70.025520    61.039394    48.971935    70.499306    61.660095    49.850754    36.675575
  111.217285   113.382187   115.251907   116.416710   112.735428   114.647118   115.872505   116.244469   114.781052   115.349052   115.180061   113.722359   114.874062   114.763832   113.413177   111.470894
    0.000000     0.000000     0.000000     0.000000     0.000000     0.000000     0.000000     0.000000     0.000000     0.000000     0.000000     0.000000     0.000000     0.000000     0.000000     0.000000
    4.587028     5.243234     5.615193     5.653015     4.678902     5.115476     5.234796     4.968591     4.379579     4.313097     3.819592     2.657939     3.968591     3.596148     2.577336     0.779363
    0.000000     0.000000     0.000000     0.000000     0.000000     0.000000     0.000000     0.000000     0.000000     0.000000     0.000000     0.000000     0.000000     0.000000     0.000000     0.000000
    0.000000     0.000000     0.000000     0.000000     0.000000     0.000000     0.000000     0.000000     0.000000     0.000000     0.000000     0.000000     0.000000     0.000000     0.000000     0.000000
    0.042481     0.017162     0.000000     0.000000     0.017890     0.000000     0.000000     0.000000     0.000000     0.000000     0.000000     0.000000     0.000000     0.000000     0.000000     0.000000
    0.961195     0.624107     0.355424     0.294637     0.596515     0.326458     0.276888     0.157881     0.237952     0.156130     0.000000     0.000000     0.151537     0.007320     0.000000     0.000000
    3.207858     3.486109     3.420971     2.983712     3.121164     3.142681     2.798111     1.893595     2.396468     1.789147     0.577544     0.435948     1.707194     0.595051     0.418254     0.128094
    0.000000     0.000000     0.000000     0.000000     0.000000     0.000000     0.000000     0.000000     0.000000     0.000000     0.000000     0.000000     0.000000     0.000000     0.000000     0.000000
    0.000000     0.000000     0.000000     0.000000     0.000000     0.000000     0.000000     0.000000     0.000000     0.000000     0.000000     0.000000     0.000000     0.000000     0.000000     0.000000
    0.102876     0.078308     0.027523     0.000000     0.074902     0.030740     0.000000     0.000000     0.000000     0.000000     0.000000     0.000000     0.000000     0.000000     0.000000     0.000000
    1.533394     1.346605     0.801678     0.458446     1.247791     0.793204     0.428640     0.355819     0.366346     0.318160     0.214437     0.003062     0.297110     0.211595     0.020297     0.000000
    3.722651     4.132012     4.285316     4.075200     3.705168     3.919684     3.801903     3.279793     3.230223     2.908471     2.142112     0.469654     2.703799     2.083729     0.576775     0.131415
    0.000000     0.000000     0.000000     0.000000     0.000000     0.000000     0.000000     0.000000     0.000000     0.000000     0.000000     0.000000     0.000000     0.000000     0.000000     0.000000
  192.250610   199.613083   207.567856   215.384949   197.995346   205.909424   213.747360   221.520432   210.471451   218.249252   226.088318   234.255096   216.621231   224.441681   232.588425   239.970123
    0.000000     0.000000     0.000000     0.000000     0.000000     0.000000     0.000000     0.000000     0.000000     0.000000     0.000000     0.000000     0.000000     0.000000     0.000000     0.000000
    0.566228     0.000000     0.000000     0.000000     0.000000     0.000000     0.000000     0.000000     0.000000     0.000000     0.000000     0.000000     0.000000     0.000000     0.000000     0.000000
   18.863308    14.434744    13.095978    11.633831    14.466198    13.142446    11.689717     8.883005    11.800637     9.379111     5.395463     0.877740     9.617313     5.679859     1.183700     0.000000
  115.641968   109.661598   102.449692    94.493935   109.665344   102.538857    94.642990    78.479729    94.935966    81.121216    57.794075    31.284637    82.383018    59.333481    32.951618    25.461969
  173.673538   178.236938   182.858322   187.315262   176.951157   181.553879   186.043518   188.323059   183.499023   186.384354   186.902145   187.102249   185.407196   185.967896   186.175568   183.843750
    0.000000     0.000000     0.000000     0.000000     0.000000     0.000000     0.000000     0.000000     0.000000     0.000000     0.000000     0.000000     0.000000     0.000000     0.000000     0.000000
    4.280226     0.276669     0.000000     0.000000     0.707825     0.000000     0.000000     0.000000     0.000000     0.000000     0.000000     0.000000     0.000000     0.000000     0.000000     0.000000
   42.463898    18.613066    15.962914    14.721409    21.112787    15.995304    14.764051    13.410585    14.848287    13.530515    11.713616     7.822780    13.585238    11.959671     8.085533     3.741752
  128.024033   125.881317   120.559525   113.985939   125.600639   120.563126   114.050964   106.816277   114.174431   107.155113    97.109917    74.426598   107.293648    98.413979    75.831230    50.458317
  179.526413   185.723984   191.150146   196.181503   184.293793   189.824905   194.868866   199.866226   192.240829   197.275558   201.661575   202.883667   195.979492   200.656677   201.894684   202.860764
    0.000000     0.000000     0.000000     0.000000     0.000000     0.000000     0.000000     0.000000     0.000000     0.000000     0.000000     0.000000     0.000000     0.000000     0.000000     0.000000
    4.597587     5.253564     5.621506     5.656957     4.688267     5.123239     5.238616     4.967257     4.383163     4.312376     3.812506     2.645693     3.968109     3.592560     2.565966     0.757208
    0.000000     0.000000     0.000000     0.000000     0.000000     0.000000     0.000000     0.000000     0.000000     0.000000     0.000000     0.000000     0.000000     0.000000     0.000000     0.000000
    0.000000     0.000000     0.000000     0.000000     0.000000     0.000000     0.000000     0.000000     0.000000     0.000000     0.000000     0.000000     0.000000     0.000000     0.000000     0.000000
    0.101499     0.077395     0.027073     0.000000     0.073956     0.030380     0.000000     0.000000     0.000000     0.000000     0.000000     0.000000     0.000000     0.000000     0.000000     0.000000
    1.525205     1.340744     0.796658     0.456704     1.241775     0.789881     0.426967     0.354252     0.364821     0.316729     0.213555     0.002323     0.295738     0.210712     0.019570     0.000000
    3.716998     4.126239     4.276937     4.066421     3.699586     3.913799     3.793609     3.271166     3.222956     2.900849     2.135545     0.462376     2.696620     2.078974     0.569779     0.127660
    0.000000     0.000000     0.000000     0.000000     0.000000     0.000000     0.000000     0.000000     0.000000     0.000000     0.000000     0.000000     0.000000     0.000000     0.000000     0.000000
    0.000000     0.000000     0.000000     0.000000     0.000000     0.000000     0.000000     0.000000     0.000000     0.000000     0.000000     0.000000     0.000000     0.000000     0.000000     0.000000
    0.042852     0.016959     0.000000     0.000000     0.017773     0.000000     0.000000     0.000000     0.000000     0.000000     0.000000     0.000000     0.000000     0.000000     0.000000     0.000000
    0.962156     0.619541     0.354653     0.292754     0.592983     0.326036     0.275283     0.153622     0.236875     0.152741     0.000000     0.000000     0.148566     0.002979     0.000000     0.000000
    3.214893     3.488782     3.414529     2.969528     3.124486     3.138907     2.785812     1.861841     2.387779     1.763491     0.576624     0.434132     1.684482     0.562543     0.416591     0.124459
    0.000000     0.000000     0.000000     0.000000     0.000000     0.000000     0.000000     0.000000     0.000000     0.000000     0.000000     0.000000     0.000000     0.000000     0.000000     0.000000
  204.890747   213.675308   222.589142   231.874451   211.973083   220.857468   230.140701   239.753571   226.662109   236.205688   245.970901   255.960266   234.427139   244.188980   254.161041   264.073761
    0.000000     0.000000     0.000000     0.000000     0.000000     0.000000     0.000000     0.000000     0.000000     0.000000     0.000000     0.000000     0.000000     0.000000     0.000000     0.000000
    5.643197     3.351798     0.000000     0.000000     3.571973     0.000000     0.000000     0.000000     0.000000     0.000000     0.000000     0.000000     0.000000     0.000000     0.000000     0.000000
   52.186718    38.743076    18.657339    17.449110    39.953465    18.685808    17.484522    16.158184    17.555094    16.260017    14.805959    13.138904    16.305828    14.872423    13.214848     9.805011
  138.992264   139.461594   137.213409   130.985306   138.828064   137.186798   131.001038   124.081825   131.030197   124.290955   116.655251   107.748795   124.366661   116.850410   108.000298    88.454224
  184.884567   191.952225   198.892151   205.016434   190.480591   197.512192   203.647675   209.805984   200.903702   207.037598   213.386383   219.591751   205.658264   212.000671   218.210556   221.586365
    0.000000     0.000000     0.000000     0.000000     0.000000     0.000000     0.000000     0.000000     0.000000     0.000000     0.000000     0.000000     0.000000     0.000000     0.000000     0.000000
    8.317867     6.448486     4.323090     0.569518     6.625004     4.520258     0.974616     0.000000     1.780100     0.000000     0.000000     0.000000     0.000000     0.000000     0.000000     0.000000
   67.850098    57.093582    44.804340    22.635855    58.038063    45.868279    24.967251    18.560528    29.600136    18.585375    17.614410    16.516304    18.588295    17.641438    16.547501    15.355740
  139.717773   141.576370   143.218369   142.607895   140.873901   142.508469   142.222336   138.950180   141.435089   138.705017   133.921509   128.430832   138.523102   133.887100   128.415817   122.369865
  186.694168   194.125763   201.692795   209.430267   192.642807   200.193161   207.931595   214.969879   204.921555   212.170029   218.723129   225.509277   210.746094   217.340317   224.095016   230.843521
    0.000000     0.000000     0.000000     0.000000     0.000000     0.000000     0.000000     0.000000     0.000000     0.000000     0.000000     0.000000     0.000000     0.000000     0.000000     0.000000
  207.254639   216.882431   226.928726   237.143295   215.105667   225.116226   235.329849   245.504333   231.690475   241.827820   252.519608   263.718811   240.016174   250.614197   261.802521   273.215820
    0.000000     0.000000     0.000000     0.000000     0.000000     0.000000     0.000000     0.000000     0.000000     0.000000     0.000000     0.000000     0.000000     0.000000     0.000000     0.000000
    9.044939     7.305067     5.246176     3.023957     7.475301     5.440260     3.226303     0.000000     3.632947     0.284391     0.000000     0.000000     0.697994     0.000000     0.000000     0.000000
   73.600075    63.625652    51.738964    38.843384    64.523605    52.782566    39.934883    20.717819    42.135036    22.371063    19.753170    18.608936    24.754395    19.772211    18.637751    17.419067
  149.000443   151.108139   152.952301   154.463852   150.336746   152.217255   153.727127   152.463547   152.287857   152.011505   147.452393   141.823624   151.630325   147.351746   141.779724   135.752777
  189.432602   197.505493   205.906189   214.328659   195.948074   204.329453   212.750595   220.940201   209.595413   217.908096   225.543915   233.269653   216.344391   224.029282   231.751923   239.719528
    0.000000     0.000000     0.000000     0.000000     0.000000     0.000000     0.000000     0.000000     0.000000     0.000000     0.000000     0.000000     0.000000     0.000000     0.000000     0.000000
   10.480162     8.964686     7.061844     5.051370     9.117774     7.236347     5.233800     2.760022     5.595797     3.495414     0.000000     0.000000     3.689060     0.000000     0.000000     0.000000
   81.923676    73.385994    62.525902    51.029049    74.171585    63.440205    51.990826    37.708431    53.896519    41.880108    21.097185    20.219650    42.904995    21.082731    20.223911    19.262293
  150.070145   152.992599   155.576401   158.132874   152.135727   154.738373   157.301575   159.366669   155.630875   158.216476   157.083344   153.078812   157.370529   156.769989   152.878357   148.381439
  197.337662   205.789398   214.530457   223.462692   204.153870   212.866730   221.794434   230.754395   218.448700   227.386627   236.338791   244.474274   225.710342   234.720108   242.876450   251.025421
    0.000000     0.000000     0.000000     0.000000     0.000000     0.000000     0.000000     0.000000     0.000000     0.000000     0.000000     0.000000     0.000000     0.000000     0.000000     0.000000
  207.432297   217.426727   227.752090   238.455154   215.588272   225.878967   236.560867   247.547806   232.773529   243.707748   254.687317   266.208618   241.784332   252.781952   264.232117   276.146759
    0.046164     0.000000     0.000000     0.000000     0.000000     0.000000     0.000000     0.000000     0.000000     0.000000     0.000000     0.000000     0.000000     0.000000     0.000000     0.000000
   10.467241     8.877261     7.041498     5.109712     9.012904     7.207026     5.281876     3.209946     5.624362     3.599754     0.279850     0.000000     3.784820     0.697805     0.000000     0.000000
   81.542000    74.138702    63.671333    52.639961    74.818161    64.528015    53.536091    41.656868    55.316902    43.723751    24.237810    21.703411    44.697937    26.634935    21.705626    20.710297
  156.880325   159.814331   162.425949   165.054596   158.931717   161.556183   164.187134   166.656921   162.447906   164.974625   165.489151   161.391144   164.121323   165.023438   161.175278   156.553024
  193.917862   202.466644   211.345306   220.528961   200.825790   209.670334   218.837723   228.193237   215.454895   224.785217   234.067184   242.582031   223.074982   232.389252   240.956451   249.599121
    0.139684     0.000000     0.000000     0.000000     0.000000     0.000000     0.000000     0.000000     0.000000     0.000000     0.000000     0.000000     0.000000     0.000000     0.000000     0.000000
   11.390035     9.468573     7.752526     5.951139     9.576688     7.903497     6.107857     4.197463     6.420066     4.546488     1.744813     0.000000     4.713470     2.129554     0.000000     0.000000
   82.391373    76.278854    66.526276    56.278309    76.798813    67.300896    57.086510    46.196838    58.695583    48.023087    31.723421    20.904799    48.891857    33.919025    20.896128    20.059624
  149.590622   152.816055   155.539261   158.319733   151.931519   154.679382   157.457748   160.238358   155.732910   158.520401   160.044800   157.492523   157.659164   159.522995   157.208023   153.514099
  197.568237   206.249802   215.195465   224.464645   204.564728   213.482880   222.733337   232.264755   219.272629   228.746994   238.274200   247.168915   226.990082   236.538208   245.512421   254.165085
    0.000000     0.000000     0.000000     0.000000     0.000000     0.000000     0.000000     0.000000     0.000000     0.000000     0.000000     0.000000     0.000000     0.000000     0.000000     0.000000
  207.677750   217.630219   227.904190   238.551331   215.802277   226.038040   236.664505   247.569778   232.892487   243.756180   254.650818   266.094940   241.847794   252.753189   264.137146   276.000977
    0.116783     0.000000     0.000000     0.000000     0.000000     0.000000     0.000000     0.000000     0.000000     0.000000     0.000000     0.000000     0.000000     0.000000     0.000000     0.000000
   11.686565     9.852618     8.086026     6.231373     9.963481     8.240874     6.392207     4.423526     6.712641     4.782965     1.908468     0.000000     4.954754     2.300420     0.000000     0.000000
   85.021904    78.645836    68.602173    58.047295    79.180252    69.397964    58.878052    47.651127    60.532196    49.535812    32.812237    21.043175    50.431396    35.048836    21.033798    20.194748
  150.287155   153.540222   156.285217   159.087616   152.646729   155.416901   158.217148   161.011581   156.475418   159.281189   160.808487   158.277969   158.413315   160.280380   157.990448   154.280014
  197.174164   205.864487   214.811371   224.081009   204.182968   213.100281   222.351334   231.869827   218.893997   228.362106   237.880066   246.783463   226.610809   236.144577   245.136749   253.779831
    0.037848     0.000000     0.000000     0.000000     0.000000     0.000000     0.000000     0.000000     0.000000     0.000000     0.000000     0.000000     0.000000     0.000000     0.000000     0.000000
   10.102890     8.610007     6.865564     5.028574     8.748107     7.022908     5.192659     3.217916     5.519288     3.589350     0.291203     0.000000     3.767928     0.696304     0.000000     0.000000
   78.373894    71.248909    61.315575    50.838417    71.947815    62.128735    51.691833    40.379852    53.389118    42.346924    22.971363    20.466755    43.289131    25.295700    20.463577    19.571953
  150.184525   153.103973   155.736221   158.384354   152.244354   154.883804   157.535492   160.014130   155.834488   158.362152   158.779892   155.220657   157.537781   158.320480   154.970673   150.928741
  200.134872   208.757248   217.674484   226.891434   207.078522   215.960709   225.162140   234.514557   221.704239   231.042587   240.282333   248.661636   229.306122   238.572678   247.023224   255.515030
    0.000000     0.000000     0.000000     0.000000     0.000000     0.000000     0.000000     0.000000     0.000000     0.000000     0.000000     0.000000     0.000000     0.000000     0.000000     0.000000
  206.467575   216.091354   226.152588   236.360855   214.322006   224.339249   234.552505   244.700027   230.927231   241.021652   251.763565   263.010681   239.220322   249.860840   261.108490   272.565948
    0.000000     0.000000     0.000000     0.000000     0.000000     0.000000     0.000000     0.000000     0.000000     0.000000     0.000000     0.000000     0.000000     0.000000     0.000000     0.000000
   10.347930     8.813576     6.910555     4.897781     8.967788     7.083920     5.079755     2.428037     5.441378     3.212137     0.000000     0.000000     3.531026     0.000000     0.000000     0.000000
   82.467697    73.834435    62.980545    51.474361    74.618538    63.878994    52.424881    37.051903    54.311447    41.509075    22.302664    21.339756    43.291515    22.288103    21.343494    20.291588
  157.029694   160.023804   162.640808   165.210831   159.124771   161.752594   164.333344   166.074509   162.572189   164.941406   163.360931   158.866760   164.261230   163.049637   158.666718   153.654419
  192.828079   201.199142   209.884109   218.750290   199.594696   208.243149   217.107864   225.991089   213.817154   222.671143   231.554138   239.751572   221.026093   229.952362   238.176834   246.405380
    0.000000     0.000000     0.000000     0.000000     0.000000     0.000000     0.000000     0.000000     0.000000     0.000000     0.000000     0.000000     0.000000     0.000000     0.000000     0.000000
    9.023551     7.255603     5.179945     2.934396     7.427550     5.373258     3.138227     0.000000     3.547200     0.083574     0.000000     0.000000     0.502765     0.000000     0.000000     0.000000
   72.526291    62.390488    50.415688    37.393021    63.301628    51.455627    38.495602    19.769775    40.712601    20.263504    18.862999    17.792770    22.682198    18.878891    17.818113    16.684145
  144.779663   146.933380   148.867874   150.459579   146.170120   148.125671   149.726562   148.336472   148.285370   147.940567   143.635651   138.415482   147.567230   143.510681   138.347214   132.787277
  197.170944   205.434479   214.035675   222.619934   203.816162   212.387985   220.980881   229.174408   217.704254   226.097946   233.623718   241.218262   224.486801   232.074387   239.678253   247.489624
    0.000000     0.000000     0.000000     0.000000     0.000000     0.000000     0.000000     0.000000     0.000000     0.000000     0.000000     0.000000     0.000000     0.000000     0.000000     0.000000
  201.568008   210.195282   218.934326   228.053299   208.534164   217.271820   226.361420   235.846695   222.967972   232.389374   241.999588   251.851181   230.652298   240.256531   250.090897   259.901489
    0.000000     0.000000     0.000000     0.000000     0.000000     0.000000     0.000000     0.000000     0.000000     0.000000     0.000000     0.000000     0.000000     0.000000     0.000000     0.000000
    8.038297     6.132403     3.976084     0.045647     6.314703     4.177796     0.458164     0.000000     1.279278     0.000000     0.000000     0.000000     0.000000     0.000000     0.000000     0.000000
   66.213440    55.244595    42.781536    19.543436    56.220692    43.869846    21.916712    18.455399    26.638489    18.486959    17.478138    16.345734    18.492662    17.506918    16.379240    15.150902
  140.694611   142.589401   144.303284   143.495422   141.865448   143.572159   143.092896   139.453995   142.275101   139.231812   134.252762   128.591843   139.057541   134.219711   128.581589   122.348686
  191.862122   199.472488   207.225754   215.125732   197.941513   205.684311   213.579849   220.665787   210.477921   217.786011   224.471512   231.421036   216.318726   223.043015   229.961975   236.860016
    0.000000     0.000000     0.000000     0.000000     0.000000     0.000000     0.000000     0.000000     0.000000     0.000000     0.000000     0.000000     0.000000     0.000000     0.000000     0.000000
    5.721308     3.521884     0.000000     0.000000     3.730979     0.394128     0.000000     0.000000     0.000000     0.000000     0.000000     0.000000     0.000000     0.000000     0.000000     0.000000
   51.462143    38.552650    17.562355    16.449541    39.707268    19.860584    16.483318    15.261325    16.550791    15.358418    14.025865    12.498445    15.401838    14.087111    12.568423     9.365669
  132.819733   133.268738   131.525314   125.826622   132.684875   131.325577   125.832619   119.489326   125.843407   119.674438   112.710541   104.577736   119.736511   112.875893   104.795395    86.428284
  188.317596   195.289871   202.178101   208.111618   193.817841   200.729813   206.750198   212.690979   204.021637   209.961868   216.065140   222.004547   208.592865   214.691116   220.636902   223.822250
